Si51
 1.000000
     2.5000000000000000    0.0000000000000000    0.0000000000000000
    -1.2500000000000000  110.4182389794000017    0.0000000000000000
     0.0000000000000000    0.0000000000000000   16.0000000000000000
Si
51
Direct
   0.0000000000000000  0.0000000000000000  0.0000000000000000 Si
   0.7647058823529402  0.5294117647058824  0.0000000000000000 Si
   0.2745098039215677  0.5490196078431373  0.0000000000000000 Si
   0.7843137254901968  0.5686274509803921  0.0000000000000000 Si
   0.2941176470588225  0.5882352941176471  0.0000000000000000 Si
   0.8039215686274517  0.6078431372549019  0.0000000000000000 Si
   0.3137254901960791  0.6274509803921569  0.0000000000000000 Si
   0.8235294117647065  0.6470588235294118  0.0000000000000000 Si
   0.3333333333333357  0.6666666666666666  0.0000000000000000 Si
   0.8431372549019613  0.6862745098039216  0.0000000000000000 Si
   0.3529411764705905  0.7058823529411764  0.0000000000000000 Si
   0.2549019607843146  0.5098039215686274  0.0000000000000000 Si
   0.8627450980392162  0.7254901960784313  0.0000000000000000 Si
   0.8823529411764710  0.7647058823529411  0.0000000000000000 Si
   0.3921568627450966  0.7843137254901961  0.0000000000000000 Si
   0.9019607843137258  0.8039215686274510  0.0000000000000000 Si
   0.4117647058823550  0.8235294117647058  0.0000000000000000 Si
   0.9215686274509807  0.8431372549019608  0.0000000000000000 Si
   0.4313725490196063  0.8627450980392157  0.0000000000000000 Si
   0.9411764705882355  0.8823529411764706  0.0000000000000000 Si
   0.4509803921568611  0.9019607843137255  0.0000000000000000 Si
   0.9607843137254903  0.9215686274509803  0.0000000000000000 Si
   0.4705882352941195  0.9411764705882353  0.0000000000000000 Si
   0.3725490196078418  0.7450980392156863  0.0000000000000000 Si
   0.9803921568627452  0.9607843137254902  0.0000000000000000 Si
   0.7450980392156872  0.4901960784313725  0.0000000000000000 Si
   0.7254901960784306  0.4509803921568628  0.0000000000000000 Si
   0.5098039215686274  0.0196078431372549  0.0000000000000000 Si
   0.0196078431372549  0.0392156862745098  0.0000000000000000 Si
   0.5294117647058825  0.0588235294117647  0.0000000000000000 Si
   0.0392156862745099  0.0784313725490196  0.0000000000000000 Si
   0.5490196078431371  0.0980392156862745  0.0000000000000000 Si
   0.0588235294117649  0.1176470588235294  0.0000000000000000 Si
   0.5686274509803919  0.1372549019607843  0.0000000000000000 Si
   0.0784313725490198  0.1568627450980392  0.0000000000000000 Si
   0.5882352941176476  0.1764705882352941  0.0000000000000000 Si
   0.0980392156862742  0.1960784313725490  0.0000000000000000 Si
   0.2352941176470598  0.4705882352941176  0.0000000000000000 Si
   0.6078431372549016  0.2156862745098039  0.0000000000000000 Si
   0.6274509803921573  0.2549019607843137  0.0000000000000000 Si
   0.1372549019607838  0.2745098039215687  0.0000000000000000 Si
   0.6470588235294112  0.2941176470588235  0.0000000000000000 Si
   0.1568627450980395  0.3137254901960784  0.0000000000000000 Si
   0.6666666666666679  0.3333333333333333  0.0000000000000000 Si
   0.1764705882352953  0.3529411764705882  0.0000000000000000 Si
   0.6862745098039209  0.3725490196078431  0.0000000000000000 Si
   0.1960784313725483  0.3921568627450980  0.0000000000000000 Si
   0.7058823529411775  0.4117647058823529  0.0000000000000000 Si
   0.2156862745098032  0.4313725490196079  0.0000000000000000 Si
   0.1176470588235299  0.2352941176470588  0.0000000000000000 Si
   0.4901960784313744  0.9803921568627451  0.0000000000000000 Si
