Si42
 1.000000
     2.5000000000000000    0.0000000000000000    0.0000000000000000
     0.0000000000000000   90.9326673947999922    0.0000000000000000
     0.0000000000000000    0.0000000000000000   16.0000000000000000
Si
42
Direct
   0.0000000000000000  0.0000000000000000  0.0000000000000000 Si
   0.5000000000000018  0.5476190476190476  0.0000000000000000 Si
   0.0000000000000000  0.5714285714285714  0.0000000000000000 Si
   0.5000000000000000  0.5952380952380952  0.0000000000000000 Si
   0.0000000000000000  0.6190476190476191  0.0000000000000000 Si
   0.5000000000000018  0.6428571428571428  0.0000000000000000 Si
   0.0000000000000000  0.6666666666666666  0.0000000000000000 Si
   0.5000000000000000  0.6904761904761905  0.0000000000000000 Si
   0.0000000000000018  0.7142857142857142  0.0000000000000000 Si
   0.5000000000000018  0.7380952380952380  0.0000000000000000 Si
   0.0000000000000000  0.7619047619047619  0.0000000000000000 Si
   0.5000000000000000  0.7857142857142857  0.0000000000000000 Si
   0.0000000000000000  0.8095238095238095  0.0000000000000000 Si
   0.5000000000000000  0.8333333333333333  0.0000000000000000 Si
   0.0000000000000000  0.8571428571428571  0.0000000000000000 Si
   0.5000000000000000  0.8809523809523809  0.0000000000000000 Si
   0.0000000000000036  0.9047619047619047  0.0000000000000000 Si
   0.5000000000000000  0.9285714285714285  0.0000000000000000 Si
   0.0000000000000018  0.5238095238095237  0.0000000000000000 Si
   0.5000000000000000  0.5000000000000000  0.0000000000000000 Si
   0.0000000000000000  0.4761904761904762  0.0000000000000000 Si
   0.5000000000000018  0.4523809523809523  0.0000000000000000 Si
   0.5000000000000000  0.0238095238095238  0.0000000000000000 Si
   0.0000000000000000  0.0476190476190476  0.0000000000000000 Si
   0.5000000000000000  0.0714285714285714  0.0000000000000000 Si
   0.0000000000000000  0.0952380952380952  0.0000000000000000 Si
   0.5000000000000000  0.1190476190476190  0.0000000000000000 Si
   0.0000000000000000  0.1428571428571428  0.0000000000000000 Si
   0.5000000000000000  0.1666666666666667  0.0000000000000000 Si
   0.0000000000000000  0.1904761904761905  0.0000000000000000 Si
   0.0000000000000000  0.9523809523809523  0.0000000000000000 Si
   0.5000000000000000  0.2142857142857143  0.0000000000000000 Si
   0.5000000000000009  0.2619047619047619  0.0000000000000000 Si
   0.0000000000000000  0.2857142857142857  0.0000000000000000 Si
   0.5000000000000000  0.3095238095238095  0.0000000000000000 Si
   0.0000000000000000  0.3333333333333333  0.0000000000000000 Si
   0.5000000000000009  0.3571428571428571  0.0000000000000000 Si
   0.0000000000000000  0.3809523809523809  0.0000000000000000 Si
   0.5000000000000000  0.4047619047619048  0.0000000000000000 Si
   0.0000000000000000  0.4285714285714285  0.0000000000000000 Si
   0.0000000000000000  0.2380952380952381  0.0000000000000000 Si
   0.5000000000000000  0.9761904761904762  0.0000000000000000 Si
