Si86
 1.000000
    17.5000000000000000    4.3301270187999990    0.0000000000000000
   -11.2500000000000000   23.8156986033999978    0.0000000000000000
     0.0000000000000000    0.0000000000000000   16.0000000000000000
Si
86
Direct
   0.0000000000000000  0.0000000000000000  0.0000000000000000 Si
   0.2906976744186046  0.6744186046511631  0.0000000000000000 Si
   0.3023255813953488  0.5813953488372094  0.0000000000000000 Si
   0.3139534883720930  0.4883720930232558  0.0000000000000000 Si
   0.3255813953488372  0.3953488372093021  0.0000000000000000 Si
   0.3372093023255814  0.3023255813953485  0.0000000000000000 Si
   0.3488372093023255  0.2093023255813957  0.0000000000000000 Si
   0.3604651162790697  0.1162790697674421  0.0000000000000000 Si
   0.3720930232558139  0.0232558139534884  0.0000000000000000 Si
   0.3837209302325582  0.9302325581395348  0.0000000000000000 Si
   0.3953488372093024  0.8372093023255811  0.0000000000000000 Si
   0.4069767441860466  0.7441860465116275  0.0000000000000000 Si
   0.4186046511627907  0.6511627906976747  0.0000000000000000 Si
   0.4302325581395349  0.5581395348837210  0.0000000000000000 Si
   0.4418604651162791  0.4651162790697674  0.0000000000000000 Si
   0.4534883720930233  0.3720930232558137  0.0000000000000000 Si
   0.4651162790697675  0.2790697674418601  0.0000000000000000 Si
   0.4767441860465116  0.1860465116279073  0.0000000000000000 Si
   0.2790697674418605  0.7674418604651159  0.0000000000000000 Si
   0.2674418604651163  0.8604651162790695  0.0000000000000000 Si
   0.2558139534883721  0.9534883720930232  0.0000000000000000 Si
   0.2441860465116279  0.0465116279069768  0.0000000000000000 Si
   0.0348837209302326  0.7209302325581390  0.0000000000000000 Si
   0.0465116279069767  0.6279069767441863  0.0000000000000000 Si
   0.0581395348837209  0.5348837209302326  0.0000000000000000 Si
   0.0697674418604651  0.4418604651162790  0.0000000000000000 Si
   0.0813953488372093  0.3488372093023253  0.0000000000000000 Si
   0.0930232558139535  0.2558139534883717  0.0000000000000000 Si
   0.1046511627906976  0.1627906976744189  0.0000000000000000 Si
   0.1162790697674418  0.0697674418604652  0.0000000000000000 Si
   0.4883720930232558  0.0930232558139537  0.0000000000000000 Si
   0.1279069767441861  0.9767441860465116  0.0000000000000000 Si
   0.1511627906976745  0.7906976744186043  0.0000000000000000 Si
   0.1627906976744187  0.6976744186046506  0.0000000000000000 Si
   0.1744186046511628  0.6046511627906979  0.0000000000000000 Si
   0.1860465116279070  0.5116279069767442  0.0000000000000000 Si
   0.1976744186046512  0.4186046511627906  0.0000000000000000 Si
   0.2093023255813954  0.3255813953488369  0.0000000000000000 Si
   0.2209302325581396  0.2325581395348832  0.0000000000000000 Si
   0.2325581395348837  0.1395348837209305  0.0000000000000000 Si
   0.1395348837209303  0.8837209302325579  0.0000000000000000 Si
   0.5000000000000000  0.0000000000000000  0.0000000000000000 Si
   0.5116279069767442  0.9069767441860463  0.0000000000000000 Si
   0.5232558139534884  0.8139534883720931  0.0000000000000000 Si
   0.7906976744186047  0.6744186046511627  0.0000000000000000 Si
   0.8023255813953488  0.5813953488372092  0.0000000000000000 Si
   0.8139534883720930  0.4883720930232558  0.0000000000000000 Si
   0.8255813953488372  0.3953488372093024  0.0000000000000000 Si
   0.8372093023255813  0.3023255813953489  0.0000000000000000 Si
   0.8488372093023255  0.2093023255813953  0.0000000000000000 Si
   0.8604651162790697  0.1162790697674418  0.0000000000000000 Si
   0.8720930232558139  0.0232558139534884  0.0000000000000000 Si
   0.7790697674418605  0.7674418604651163  0.0000000000000000 Si
   0.8837209302325582  0.9302325581395349  0.0000000000000000 Si
   0.9069767441860466  0.7441860465116279  0.0000000000000000 Si
   0.9186046511627907  0.6511627906976745  0.0000000000000000 Si
   0.9302325581395349  0.5581395348837209  0.0000000000000000 Si
   0.9418604651162791  0.4651162790697674  0.0000000000000000 Si
   0.9534883720930233  0.3720930232558139  0.0000000000000000 Si
   0.9651162790697675  0.2790697674418605  0.0000000000000000 Si
   0.9767441860465116  0.1860465116279070  0.0000000000000000 Si
   0.9883720930232558  0.0930232558139535  0.0000000000000000 Si
   0.8953488372093024  0.8372093023255813  0.0000000000000000 Si
   0.0232558139534884  0.8139534883720927  0.0000000000000000 Si
   0.7674418604651163  0.8604651162790697  0.0000000000000000 Si
   0.7441860465116279  0.0465116279069768  0.0000000000000000 Si
   0.5348837209302326  0.7209302325581395  0.0000000000000000 Si
   0.5465116279069768  0.6279069767441858  0.0000000000000000 Si
   0.5581395348837209  0.5348837209302326  0.0000000000000000 Si
   0.5697674418604651  0.4418604651162790  0.0000000000000000 Si
   0.5813953488372093  0.3488372093023253  0.0000000000000000 Si
   0.5930232558139534  0.2558139534883721  0.0000000000000000 Si
   0.6046511627906976  0.1627906976744184  0.0000000000000000 Si
   0.6162790697674418  0.0697674418604652  0.0000000000000000 Si
   0.7558139534883721  0.9534883720930232  0.0000000000000000 Si
   0.6279069767441861  0.9767441860465116  0.0000000000000000 Si
   0.6511627906976745  0.7906976744186047  0.0000000000000000 Si
   0.6627906976744187  0.6976744186046511  0.0000000000000000 Si
   0.6744186046511628  0.6046511627906979  0.0000000000000000 Si
   0.6860465116279070  0.5116279069767442  0.0000000000000000 Si
   0.6976744186046512  0.4186046511627906  0.0000000000000000 Si
   0.7093023255813953  0.3255813953488373  0.0000000000000000 Si
   0.7209302325581395  0.2325581395348837  0.0000000000000000 Si
   0.7325581395348837  0.1395348837209300  0.0000000000000000 Si
   0.6395348837209303  0.8837209302325579  0.0000000000000000 Si
   0.0116279069767442  0.9069767441860463  0.0000000000000000 Si
