Si69
 1.000000
   -11.2500000000000000   -6.4951905282000268   -0.0000000000000000
   -12.5000000000000000   25.9807621128000008   -0.0000000000000000
    -0.0000000000000000   -0.0000000000000000  -16.0000000000000000
Si
69
Direct
   0.0000000000000000  0.0000000000000000  0.0000000000000000 Si
   0.4782608695652174  0.8695652173913047  0.0000000000000000 Si
   0.4637681159420289  0.7826086956521738  0.0000000000000000 Si
   0.4492753623188406  0.6956521739130435  0.0000000000000000 Si
   0.4347826086956522  0.6086956521739131  0.0000000000000000 Si
   0.4202898550724637  0.5217391304347823  0.0000000000000000 Si
   0.4057971014492754  0.4347826086956523  0.0000000000000000 Si
   0.3913043478260869  0.3478260869565215  0.0000000000000000 Si
   0.3768115942028986  0.2608695652173916  0.0000000000000000 Si
   0.3623188405797101  0.1739130434782608  0.0000000000000000 Si
   0.3478260869565217  0.0869565217391304  0.0000000000000000 Si
   0.3333333333333334  0.0000000000000000  0.0000000000000000 Si
   0.3188405797101449  0.9130434782608692  0.0000000000000000 Si
   0.3043478260869565  0.8260869565217392  0.0000000000000000 Si
   0.2898550724637681  0.7391304347826084  0.0000000000000000 Si
   0.2753623188405797  0.6521739130434785  0.0000000000000000 Si
   0.2608695652173912  0.5652173913043477  0.0000000000000000 Si
   0.2463768115942029  0.4782608695652169  0.0000000000000000 Si
   0.0434782608695652  0.2608695652173907  0.0000000000000000 Si
   0.0579710144927537  0.3478260869565215  0.0000000000000000 Si
   0.0724637681159420  0.4347826086956523  0.0000000000000000 Si
   0.0869565217391304  0.5217391304347823  0.0000000000000000 Si
   0.1014492753623188  0.6086956521739131  0.0000000000000000 Si
   0.1159420289855072  0.6956521739130430  0.0000000000000000 Si
   0.4927536231884058  0.9565217391304346  0.0000000000000000 Si
   0.1304347826086957  0.7826086956521738  0.0000000000000000 Si
   0.1594202898550725  0.9565217391304355  0.0000000000000000 Si
   0.1739130434782609  0.0434782608695654  0.0000000000000000 Si
   0.1884057971014492  0.1304347826086953  0.0000000000000000 Si
   0.2028985507246377  0.2173913043478262  0.0000000000000000 Si
   0.2173913043478261  0.3043478260869561  0.0000000000000000 Si
   0.2318840579710145  0.3913043478260869  0.0000000000000000 Si
   0.1449275362318840  0.8695652173913047  0.0000000000000000 Si
   0.0289855072463768  0.1739130434782608  0.0000000000000000 Si
   0.5072463768115942  0.0434782608695650  0.0000000000000000 Si
   0.5362318840579710  0.2173913043478262  0.0000000000000000 Si
   0.9855072463768116  0.9130434782608696  0.0000000000000000 Si
   0.9710144927536232  0.8260869565217391  0.0000000000000000 Si
   0.9565217391304348  0.7391304347826086  0.0000000000000000 Si
   0.9420289855072463  0.6521739130434783  0.0000000000000000 Si
   0.9275362318840580  0.5652173913043478  0.0000000000000000 Si
   0.9130434782608696  0.4782608695652174  0.0000000000000000 Si
   0.8985507246376812  0.3913043478260869  0.0000000000000000 Si
   0.8840579710144928  0.3043478260869565  0.0000000000000000 Si
   0.8695652173913043  0.2173913043478262  0.0000000000000000 Si
   0.8550724637681160  0.1304347826086956  0.0000000000000000 Si
   0.8405797101449275  0.0434782608695652  0.0000000000000000 Si
   0.8260869565217391  0.9565217391304348  0.0000000000000000 Si
   0.8115942028985508  0.8695652173913042  0.0000000000000000 Si
   0.7971014492753623  0.7826086956521738  0.0000000000000000 Si
   0.7826086956521739  0.6956521739130435  0.0000000000000000 Si
   0.7681159420289855  0.6086956521739131  0.0000000000000000 Si
   0.7536231884057971  0.5217391304347825  0.0000000000000000 Si
   0.5507246376811594  0.3043478260869565  0.0000000000000000 Si
   0.5652173913043479  0.3913043478260869  0.0000000000000000 Si
   0.5797101449275363  0.4782608695652177  0.0000000000000000 Si
   0.5942028985507246  0.5652173913043477  0.0000000000000000 Si
   0.6086956521739131  0.6521739130434780  0.0000000000000000 Si
   0.6231884057971014  0.7391304347826084  0.0000000000000000 Si
   0.5217391304347826  0.1304347826086953  0.0000000000000000 Si
   0.6376811594202898  0.8260869565217392  0.0000000000000000 Si
   0.6666666666666667  0.0000000000000000  0.0000000000000000 Si
   0.6811594202898550  0.0869565217391304  0.0000000000000000 Si
   0.6956521739130435  0.1739130434782608  0.0000000000000000 Si
   0.7101449275362319  0.2608695652173911  0.0000000000000000 Si
   0.7246376811594203  0.3478260869565217  0.0000000000000000 Si
   0.7391304347826086  0.4347826086956523  0.0000000000000000 Si
   0.6521739130434783  0.9130434782608696  0.0000000000000000 Si
   0.0144927536231884  0.0869565217391299  0.0000000000000000 Si
