Si63
 1.000000
   -11.2500000000000000   -6.4951905281999984   -0.0000000000000000
   -11.2500000000000000   23.8156986033999978   -0.0000000000000000
    -0.0000000000000000   -0.0000000000000000  -16.0000000000000000
Si
63
Direct
   0.0000000000000000  0.0000000000000000  0.0000000000000000 Si
   0.4761904761904763  0.8571428571428577  0.0000000000000000 Si
   0.4603174603174603  0.7619047619047619  0.0000000000000000 Si
   0.4444444444444444  0.6666666666666665  0.0000000000000000 Si
   0.4285714285714286  0.5714285714285716  0.0000000000000000 Si
   0.4126984126984128  0.4761904761904767  0.0000000000000000 Si
   0.3968253968253969  0.3809523809523814  0.0000000000000000 Si
   0.3809523809523809  0.2857142857142856  0.0000000000000000 Si
   0.3650793650793651  0.1904761904761907  0.0000000000000000 Si
   0.3492063492063493  0.0952380952380958  0.0000000000000000 Si
   0.3333333333333334  0.0000000000000000  0.0000000000000000 Si
   0.3174603174603174  0.9047619047619051  0.0000000000000000 Si
   0.3015873015873016  0.8095238095238102  0.0000000000000000 Si
   0.2857142857142858  0.7142857142857153  0.0000000000000000 Si
   0.4920634920634921  0.9523809523809526  0.0000000000000000 Si
   0.2698412698412699  0.6190476190476195  0.0000000000000000 Si
   0.2380952380952381  0.4285714285714288  0.0000000000000000 Si
   0.2222222222222223  0.3333333333333339  0.0000000000000000 Si
   0.2063492063492064  0.2380952380952381  0.0000000000000000 Si
   0.1904761904761905  0.1428571428571423  0.0000000000000000 Si
   0.1746031746031746  0.0476190476190474  0.0000000000000000 Si
   0.1587301587301588  0.9523809523809526  0.0000000000000000 Si
   0.1428571428571429  0.8571428571428577  0.0000000000000000 Si
   0.1269841269841270  0.7619047619047619  0.0000000000000000 Si
   0.1111111111111112  0.6666666666666670  0.0000000000000000 Si
   0.0952380952380953  0.5714285714285721  0.0000000000000000 Si
   0.0793650793650794  0.4761904761904763  0.0000000000000000 Si
   0.0634920634920635  0.3809523809523814  0.0000000000000000 Si
   0.0476190476190477  0.2857142857142865  0.0000000000000000 Si
   0.2539682539682540  0.5238095238095237  0.0000000000000000 Si
   0.0317460317460319  0.1904761904761916  0.0000000000000000 Si
   0.5079365079365079  0.0476190476190479  0.0000000000000000 Si
   0.5396825396825398  0.2380952380952381  0.0000000000000000 Si
   0.9841269841269842  0.9047619047619048  0.0000000000000000 Si
   0.9682539682539683  0.8095238095238095  0.0000000000000000 Si
   0.9523809523809523  0.7142857142857143  0.0000000000000000 Si
   0.9365079365079365  0.6190476190476191  0.0000000000000000 Si
   0.9206349206349207  0.5238095238095238  0.0000000000000000 Si
   0.9047619047619048  0.4285714285714286  0.0000000000000000 Si
   0.8888888888888888  0.3333333333333334  0.0000000000000000 Si
   0.8730158730158730  0.2380952380952381  0.0000000000000000 Si
   0.8571428571428572  0.1428571428571429  0.0000000000000000 Si
   0.8412698412698413  0.0476190476190477  0.0000000000000000 Si
   0.8253968253968254  0.9523809523809526  0.0000000000000000 Si
   0.8095238095238095  0.8571428571428572  0.0000000000000000 Si
   0.7936507936507937  0.7619047619047619  0.0000000000000000 Si
   0.5238095238095238  0.1428571428571432  0.0000000000000000 Si
   0.7777777777777778  0.6666666666666667  0.0000000000000000 Si
   0.7460317460317460  0.4761904761904763  0.0000000000000000 Si
   0.7301587301587302  0.3809523809523809  0.0000000000000000 Si
   0.7142857142857143  0.2857142857142858  0.0000000000000000 Si
   0.6984126984126984  0.1904761904761907  0.0000000000000000 Si
   0.6825396825396826  0.0952380952380953  0.0000000000000000 Si
   0.6666666666666667  0.0000000000000000  0.0000000000000000 Si
   0.6507936507936508  0.9047619047619051  0.0000000000000000 Si
   0.6349206349206349  0.8095238095238098  0.0000000000000000 Si
   0.6190476190476191  0.7142857142857144  0.0000000000000000 Si
   0.6031746031746033  0.6190476190476191  0.0000000000000000 Si
   0.5873015873015873  0.5238095238095237  0.0000000000000000 Si
   0.5714285714285714  0.4285714285714288  0.0000000000000000 Si
   0.5555555555555556  0.3333333333333335  0.0000000000000000 Si
   0.7619047619047619  0.5714285714285716  0.0000000000000000 Si
   0.0158730158730159  0.0952380952380958  0.0000000000000000 Si
