Si32
 1.000000
     5.0000000000000000    0.0000000000000000    0.0000000000000000
    -2.5000000000000000   34.6410161504000058    0.0000000000000000
     0.0000000000000000    0.0000000000000000   16.0000000000000000
Si
32
Direct
   0.0000000000000000  0.0000000000000000  0.0000000000000000 Si
   0.6562500000000027  0.8124999999999991  0.0000000000000000 Si
   0.8750000000000027  0.7499999999999991  0.0000000000000000 Si
   0.0937500000000027  0.6874999999999993  0.0000000000000000 Si
   0.3125000000000018  0.6249999999999993  0.0000000000000000 Si
   0.5312500000000018  0.5624999999999993  0.0000000000000000 Si
   0.7500000000000018  0.4999999999999993  0.0000000000000000 Si
   0.9687500000000018  0.4374999999999993  0.0000000000000000 Si
   0.1875000000000018  0.3749999999999993  0.0000000000000000 Si
   0.4062500000000018  0.3124999999999993  0.0000000000000000 Si
   0.6250000000000018  0.2499999999999996  0.0000000000000000 Si
   0.8437500000000018  0.1874999999999996  0.0000000000000000 Si
   0.0625000000000013  0.1249999999999996  0.0000000000000000 Si
   0.2812500000000013  0.0624999999999996  0.0000000000000000 Si
   0.5000000000000013  0.9999999999999996  0.0000000000000000 Si
   0.7187500000000013  0.9374999999999996  0.0000000000000000 Si
   0.9375000000000013  0.8749999999999996  0.0000000000000000 Si
   0.1562500000000009  0.8124999999999997  0.0000000000000000 Si
   0.3750000000000009  0.7499999999999997  0.0000000000000000 Si
   0.5937500000000009  0.6874999999999997  0.0000000000000000 Si
   0.8125000000000009  0.6249999999999998  0.0000000000000000 Si
   0.0312500000000007  0.5624999999999998  0.0000000000000000 Si
   0.2500000000000007  0.4999999999999998  0.0000000000000000 Si
   0.4687500000000007  0.4374999999999998  0.0000000000000000 Si
   0.6875000000000004  0.3749999999999998  0.0000000000000000 Si
   0.9062500000000004  0.3124999999999999  0.0000000000000000 Si
   0.1250000000000003  0.2499999999999999  0.0000000000000000 Si
   0.3437500000000002  0.1874999999999999  0.0000000000000000 Si
   0.5625000000000002  0.1249999999999999  0.0000000000000000 Si
   0.7812500000000001  0.0625000000000000  0.0000000000000000 Si
   0.4375000000000027  0.8749999999999991  0.0000000000000000 Si
   0.2187500000000027  0.9374999999999991  0.0000000000000000 Si
