Si65
 1.000000
    -0.0000000000000000   -4.3301270187999998   -0.0000000000000000
   -81.2500000000000000    2.1650635093999995   -0.0000000000000000
    -0.0000000000000000   -0.0000000000000000  -16.0000000000000000
Si
65
Direct
   0.0000000000000000  0.0000000000000000  0.0000000000000000 Si
   0.7384615384615394  0.4769230769230769  0.0000000000000000 Si
   0.2307692307692335  0.4615384615384615  0.0000000000000000 Si
   0.7230769230769241  0.4461538461538461  0.0000000000000000 Si
   0.2153846153846146  0.4307692307692308  0.0000000000000000 Si
   0.7076923076923087  0.4153846153846154  0.0000000000000000 Si
   0.2000000000000028  0.3999999999999999  0.0000000000000000 Si
   0.6923076923076934  0.3846153846153846  0.0000000000000000 Si
   0.1846153846153840  0.3692307692307693  0.0000000000000000 Si
   0.6769230769230781  0.3538461538461538  0.0000000000000000 Si
   0.1692307692307722  0.3384615384615384  0.0000000000000000 Si
   0.6615384615384627  0.3230769230769230  0.0000000000000000 Si
   0.1538461538461533  0.3076923076923077  0.0000000000000000 Si
   0.6461538461538474  0.2923076923076923  0.0000000000000000 Si
   0.1384615384615415  0.2769230769230768  0.0000000000000000 Si
   0.6307692307692321  0.2615384615384615  0.0000000000000000 Si
   0.1230769230769226  0.2461538461538462  0.0000000000000000 Si
   0.6153846153846168  0.2307692307692307  0.0000000000000000 Si
   0.1076923076923109  0.2153846153846153  0.0000000000000000 Si
   0.6000000000000014  0.2000000000000000  0.0000000000000000 Si
   0.0923076923076920  0.1846153846153846  0.0000000000000000 Si
   0.5846153846153861  0.1692307692307692  0.0000000000000000 Si
   0.0769230769230802  0.1538461538461537  0.0000000000000000 Si
   0.5692307692307708  0.1384615384615384  0.0000000000000000 Si
   0.0615384615384613  0.1230769230769231  0.0000000000000000 Si
   0.5538461538461554  0.1076923076923076  0.0000000000000000 Si
   0.0461538461538495  0.0923076923076922  0.0000000000000000 Si
   0.5384615384615401  0.0769230769230769  0.0000000000000000 Si
   0.0307692307692307  0.0615384615384615  0.0000000000000000 Si
   0.5230769230769248  0.0461538461538461  0.0000000000000000 Si
   0.2461538461538453  0.4923076923076923  0.0000000000000000 Si
   0.0153846153846189  0.0307692307692307  0.0000000000000000 Si
   0.7538461538461547  0.5076923076923077  0.0000000000000000 Si
   0.7692307692307701  0.5384615384615384  0.0000000000000000 Si
   0.4923076923076923  0.9846153846153847  0.0000000000000000 Si
   0.9846153846153847  0.9692307692307692  0.0000000000000000 Si
   0.4769230769230770  0.9538461538461538  0.0000000000000000 Si
   0.9692307692307693  0.9384615384615385  0.0000000000000000 Si
   0.4615384615384617  0.9230769230769231  0.0000000000000000 Si
   0.9538461538461540  0.9076923076923077  0.0000000000000000 Si
   0.4461538461538463  0.8923076923076922  0.0000000000000000 Si
   0.9384615384615387  0.8769230769230769  0.0000000000000000 Si
   0.4307692307692310  0.8615384615384616  0.0000000000000000 Si
   0.9230769230769234  0.8461538461538461  0.0000000000000000 Si
   0.4153846153846157  0.8307692307692307  0.0000000000000000 Si
   0.9076923076923080  0.8153846153846154  0.0000000000000000 Si
   0.4000000000000004  0.8000000000000000  0.0000000000000000 Si
   0.8923076923076927  0.7846153846153846  0.0000000000000000 Si
   0.3846153846153850  0.7692307692307692  0.0000000000000000 Si
   0.8769230769230774  0.7538461538461538  0.0000000000000000 Si
   0.3692307692307697  0.7384615384615385  0.0000000000000000 Si
   0.8615384615384620  0.7230769230769231  0.0000000000000000 Si
   0.3538461538461544  0.7076923076923076  0.0000000000000000 Si
   0.8461538461538467  0.6923076923076923  0.0000000000000000 Si
   0.3384615384615390  0.6769230769230770  0.0000000000000000 Si
   0.8307692307692314  0.6615384615384615  0.0000000000000000 Si
   0.3230769230769237  0.6461538461538461  0.0000000000000000 Si
   0.8153846153846160  0.6307692307692307  0.0000000000000000 Si
   0.3076923076923084  0.6153846153846154  0.0000000000000000 Si
   0.8000000000000007  0.6000000000000000  0.0000000000000000 Si
   0.2923076923076930  0.5846153846153845  0.0000000000000000 Si
   0.7846153846153854  0.5692307692307692  0.0000000000000000 Si
   0.2769230769230777  0.5538461538461539  0.0000000000000000 Si
   0.2615384615384624  0.5230769230769230  0.0000000000000000 Si
   0.5076923076923094  0.0153846153846153  0.0000000000000000 Si
