Si97
 1.000000
     6.2500000000000000  -23.8156986033999942   -0.0000000000000000
   -23.7500000000000000    6.4951905282000553   -0.0000000000000000
    -0.0000000000000000   -0.0000000000000000  -16.0000000000000000
Si
97
Direct
   0.0000000000000000  0.0000000000000000  0.0000000000000000 Si
   0.6907216494845363  0.8659793814432990  0.0000000000000000 Si
   0.6082474226804120  0.8969072164948457  0.0000000000000000 Si
   0.5257731958762886  0.9278350515463920  0.0000000000000000 Si
   0.4432989690721651  0.9587628865979383  0.0000000000000000 Si
   0.3608247422680408  0.9896907216494846  0.0000000000000000 Si
   0.2783505154639174  0.0206185567010309  0.0000000000000000 Si
   0.1958762886597940  0.0515463917525771  0.0000000000000000 Si
   0.1134020618556697  0.0824742268041239  0.0000000000000000 Si
   0.0309278350515463  0.1134020618556701  0.0000000000000000 Si
   0.7731958762886597  0.8350515463917527  0.0000000000000000 Si
   0.9484536082474229  0.1443298969072164  0.0000000000000000 Si
   0.7835051546391751  0.2061855670103094  0.0000000000000000 Si
   0.7010309278350517  0.2371134020618557  0.0000000000000000 Si
   0.6185567010309274  0.2680412371134022  0.0000000000000000 Si
   0.5360824742268040  0.2989690721649485  0.0000000000000000 Si
   0.4536082474226806  0.3298969072164948  0.0000000000000000 Si
   0.3711340206185563  0.3608247422680413  0.0000000000000000 Si
   0.2886597938144329  0.3917525773195876  0.0000000000000000 Si
   0.2061855670103094  0.4226804123711339  0.0000000000000000 Si
   0.1237113402061851  0.4536082474226806  0.0000000000000000 Si
   0.8659793814432986  0.1752577319587632  0.0000000000000000 Si
   0.8556701030927831  0.8041237113402064  0.0000000000000000 Si
   0.9381443298969074  0.7731958762886597  0.0000000000000000 Si
   0.0206185567010309  0.7422680412371134  0.0000000000000000 Si
   0.7525773195876289  0.0927835051546393  0.0000000000000000 Si
   0.6701030927835054  0.1237113402061856  0.0000000000000000 Si
   0.5876288659793811  0.1546391752577323  0.0000000000000000 Si
   0.5051546391752577  0.1855670103092786  0.0000000000000000 Si
   0.4226804123711343  0.2164948453608249  0.0000000000000000 Si
   0.3402061855670100  0.2474226804123711  0.0000000000000000 Si
   0.2577319587628866  0.2783505154639174  0.0000000000000000 Si
   0.1752577319587632  0.3092783505154637  0.0000000000000000 Si
   0.0927835051546388  0.3402061855670104  0.0000000000000000 Si
   0.0103092783505154  0.3711340206185567  0.0000000000000000 Si
   0.9278350515463920  0.4020618556701030  0.0000000000000000 Si
   0.8453608247422677  0.4329896907216497  0.0000000000000000 Si
   0.7628865979381443  0.4639175257731960  0.0000000000000000 Si
   0.6804123711340209  0.4948453608247423  0.0000000000000000 Si
   0.5979381443298966  0.5257731958762886  0.0000000000000000 Si
   0.5154639175257731  0.5567010309278349  0.0000000000000000 Si
   0.4329896907216497  0.5876288659793811  0.0000000000000000 Si
   0.3505154639175254  0.6185567010309279  0.0000000000000000 Si
   0.2680412371134020  0.6494845360824741  0.0000000000000000 Si
   0.1855670103092786  0.6804123711340204  0.0000000000000000 Si
   0.1030927835051543  0.7113402061855671  0.0000000000000000 Si
   0.0412371134020617  0.4845360824742269  0.0000000000000000 Si
   0.8350515463917523  0.0618556701030930  0.0000000000000000 Si
   0.9587628865979383  0.5154639175257731  0.0000000000000000 Si
   0.7938144329896906  0.5773195876288661  0.0000000000000000 Si
   0.6494845360824741  0.3814432989690721  0.0000000000000000 Si
   0.5670103092783505  0.4123711340206185  0.0000000000000000 Si
   0.4845360824742269  0.4432989690721649  0.0000000000000000 Si
   0.4020618556701030  0.4742268041237114  0.0000000000000000 Si
   0.3195876288659794  0.5051546391752577  0.0000000000000000 Si
   0.2371134020618557  0.5360824742268041  0.0000000000000000 Si
   0.1546391752577319  0.5670103092783505  0.0000000000000000 Si
   0.0721649484536082  0.5979381443298969  0.0000000000000000 Si
   0.9896907216494846  0.6288659793814433  0.0000000000000000 Si
   0.7319587628865980  0.3505154639175257  0.0000000000000000 Si
   0.9072164948453608  0.6597938144329897  0.0000000000000000 Si
   0.7422680412371134  0.7216494845360825  0.0000000000000000 Si
   0.6597938144329897  0.7525773195876289  0.0000000000000000 Si
   0.5773195876288659  0.7835051546391752  0.0000000000000000 Si
   0.4948453608247423  0.8144329896907216  0.0000000000000000 Si
   0.4123711340206185  0.8453608247422680  0.0000000000000000 Si
   0.3298969072164948  0.8762886597938144  0.0000000000000000 Si
   0.2474226804123711  0.9072164948453608  0.0000000000000000 Si
   0.1649484536082474  0.9381443298969072  0.0000000000000000 Si
   0.0824742268041237  0.9690721649484536  0.0000000000000000 Si
   0.8247422680412371  0.6907216494845361  0.0000000000000000 Si
   0.8144329896907216  0.3195876288659794  0.0000000000000000 Si
   0.8969072164948453  0.2886597938144331  0.0000000000000000 Si
   0.9793814432989691  0.2577319587628866  0.0000000000000000 Si
   0.7113402061855671  0.6082474226804124  0.0000000000000000 Si
   0.6288659793814433  0.6391752577319587  0.0000000000000000 Si
   0.5463917525773194  0.6701030927835052  0.0000000000000000 Si
   0.4639175257731960  0.7010309278350515  0.0000000000000000 Si
   0.3814432989690721  0.7319587628865980  0.0000000000000000 Si
   0.2989690721649483  0.7628865979381443  0.0000000000000000 Si
   0.2164948453608249  0.7938144329896906  0.0000000000000000 Si
   0.1340206185567010  0.8247422680412371  0.0000000000000000 Si
   0.0515463917525771  0.8556701030927836  0.0000000000000000 Si
   0.9690721649484537  0.8865979381443299  0.0000000000000000 Si
   0.8865979381443299  0.9175257731958764  0.0000000000000000 Si
   0.8041237113402060  0.9484536082474229  0.0000000000000000 Si
   0.7216494845360826  0.9793814432989691  0.0000000000000000 Si
   0.6391752577319587  0.0103092783505154  0.0000000000000000 Si
   0.5567010309278349  0.0412371134020619  0.0000000000000000 Si
   0.4742268041237114  0.0721649484536082  0.0000000000000000 Si
   0.3917525773195876  0.1030927835051547  0.0000000000000000 Si
   0.3092783505154637  0.1340206185567011  0.0000000000000000 Si
   0.2268041237113403  0.1649484536082474  0.0000000000000000 Si
   0.1443298969072164  0.1958762886597938  0.0000000000000000 Si
   0.0618556701030926  0.2268041237113403  0.0000000000000000 Si
   0.8762886597938144  0.5463917525773196  0.0000000000000000 Si
   0.9175257731958766  0.0309278350515463  0.0000000000000000 Si
