Si97
 1.000000
     8.7500000000000000    6.4951905281999700    0.0000000000000000
   -31.2500000000000000   36.8060796598000195    0.0000000000000000
     0.0000000000000000    0.0000000000000000   16.0000000000000000
Si
97
Direct
   0.0000000000000000  0.0000000000000000  0.0000000000000000 Si
   0.8453608247422686  0.5567010309278357  0.0000000000000000 Si
   0.8041237113402064  0.5051546391752582  0.0000000000000000 Si
   0.7628865979381447  0.4536082474226810  0.0000000000000000 Si
   0.7216494845360830  0.4020618556701039  0.0000000000000000 Si
   0.6804123711340209  0.3505154639175263  0.0000000000000000 Si
   0.6391752577319592  0.2989690721649492  0.0000000000000000 Si
   0.5979381443298974  0.2474226804123720  0.0000000000000000 Si
   0.5567010309278353  0.1958762886597940  0.0000000000000000 Si
   0.5154639175257736  0.1443298969072169  0.0000000000000000 Si
   0.8865979381443303  0.6082474226804129  0.0000000000000000 Si
   0.4742268041237119  0.0927835051546397  0.0000000000000000 Si
   0.3917525773195880  0.9896907216494850  0.0000000000000000 Si
   0.3505154639175263  0.9381443298969079  0.0000000000000000 Si
   0.3092783505154642  0.8865979381443303  0.0000000000000000 Si
   0.2680412371134024  0.8350515463917532  0.0000000000000000 Si
   0.2268041237113407  0.7835051546391760  0.0000000000000000 Si
   0.1855670103092786  0.7319587628865980  0.0000000000000000 Si
   0.1443298969072169  0.6804123711340209  0.0000000000000000 Si
   0.1030927835051552  0.6288659793814437  0.0000000000000000 Si
   0.0618556701030930  0.5773195876288661  0.0000000000000000 Si
   0.4329896907216497  0.0412371134020622  0.0000000000000000 Si
   0.9278350515463920  0.6597938144329900  0.0000000000000000 Si
   0.9690721649484542  0.7113402061855676  0.0000000000000000 Si
   0.0103092783505163  0.7628865979381452  0.0000000000000000 Si
   0.8762886597938153  0.8453608247422686  0.0000000000000000 Si
   0.8350515463917536  0.7938144329896915  0.0000000000000000 Si
   0.7938144329896915  0.7422680412371143  0.0000000000000000 Si
   0.7525773195876297  0.6907216494845372  0.0000000000000000 Si
   0.7113402061855680  0.6391752577319600  0.0000000000000000 Si
   0.6701030927835059  0.5876288659793820  0.0000000000000000 Si
   0.6288659793814442  0.5360824742268049  0.0000000000000000 Si
   0.5876288659793825  0.4845360824742277  0.0000000000000000 Si
   0.5463917525773203  0.4329896907216497  0.0000000000000000 Si
   0.5051546391752586  0.3814432989690726  0.0000000000000000 Si
   0.4639175257731969  0.3298969072164954  0.0000000000000000 Si
   0.4226804123711347  0.2783505154639183  0.0000000000000000 Si
   0.3814432989690730  0.2268041237113412  0.0000000000000000 Si
   0.3402061855670113  0.1752577319587640  0.0000000000000000 Si
   0.2989690721649492  0.1237113402061860  0.0000000000000000 Si
   0.2577319587628875  0.0721649484536089  0.0000000000000000 Si
   0.2164948453608257  0.0206185567010317  0.0000000000000000 Si
   0.1752577319587636  0.9690721649484542  0.0000000000000000 Si
   0.1340206185567019  0.9175257731958770  0.0000000000000000 Si
   0.0927835051546402  0.8659793814432999  0.0000000000000000 Si
   0.0515463917525780  0.8144329896907223  0.0000000000000000 Si
   0.0206185567010313  0.5257731958762890  0.0000000000000000 Si
   0.9175257731958770  0.8969072164948457  0.0000000000000000 Si
   0.9793814432989696  0.4742268041237119  0.0000000000000000 Si
   0.8969072164948457  0.3711340206185572  0.0000000000000000 Si
   0.8247422680412373  0.0309278350515465  0.0000000000000000 Si
   0.7835051546391755  0.9793814432989693  0.0000000000000000 Si
   0.7422680412371135  0.9278350515463919  0.0000000000000000 Si
   0.7010309278350516  0.8762886597938145  0.0000000000000000 Si
   0.6597938144329898  0.8247422680412373  0.0000000000000000 Si
   0.6185567010309280  0.7731958762886599  0.0000000000000000 Si
   0.5773195876288660  0.7216494845360826  0.0000000000000000 Si
   0.5360824742268042  0.6701030927835052  0.0000000000000000 Si
   0.4948453608247424  0.6185567010309280  0.0000000000000000 Si
   0.8659793814432992  0.0824742268041239  0.0000000000000000 Si
   0.4536082474226805  0.5670103092783506  0.0000000000000000 Si
   0.3711340206185568  0.4639175257731959  0.0000000000000000 Si
   0.3298969072164949  0.4123711340206186  0.0000000000000000 Si
   0.2886597938144330  0.3608247422680413  0.0000000000000000 Si
   0.2474226804123712  0.3092783505154640  0.0000000000000000 Si
   0.2061855670103093  0.2577319587628866  0.0000000000000000 Si
   0.1649484536082474  0.2061855670103093  0.0000000000000000 Si
   0.1237113402061856  0.1546391752577320  0.0000000000000000 Si
   0.0824742268041237  0.1030927835051547  0.0000000000000000 Si
   0.0412371134020619  0.0515463917525773  0.0000000000000000 Si
   0.4123711340206186  0.5154639175257733  0.0000000000000000 Si
   0.9072164948453610  0.1340206185567012  0.0000000000000000 Si
   0.9484536082474229  0.1855670103092786  0.0000000000000000 Si
   0.9896907216494848  0.2371134020618559  0.0000000000000000 Si
   0.8556701030927840  0.3195876288659800  0.0000000000000000 Si
   0.8144329896907221  0.2680412371134024  0.0000000000000000 Si
   0.7731958762886602  0.2164948453608249  0.0000000000000000 Si
   0.7319587628865984  0.1649484536082477  0.0000000000000000 Si
   0.6907216494845365  0.1134020618556706  0.0000000000000000 Si
   0.6494845360824746  0.0618556701030930  0.0000000000000000 Si
   0.6082474226804129  0.0103092783505159  0.0000000000000000 Si
   0.5670103092783509  0.9587628865979385  0.0000000000000000 Si
   0.5257731958762890  0.9072164948453612  0.0000000000000000 Si
   0.4845360824742271  0.8556701030927838  0.0000000000000000 Si
   0.4432989690721651  0.8041237113402064  0.0000000000000000 Si
   0.4020618556701032  0.7525773195876291  0.0000000000000000 Si
   0.3608247422680415  0.7010309278350519  0.0000000000000000 Si
   0.3195876288659796  0.6494845360824746  0.0000000000000000 Si
   0.2783505154639176  0.5979381443298970  0.0000000000000000 Si
   0.2371134020618559  0.5463917525773199  0.0000000000000000 Si
   0.1958762886597940  0.4948453608247425  0.0000000000000000 Si
   0.1546391752577321  0.4432989690721651  0.0000000000000000 Si
   0.1134020618556704  0.3917525773195880  0.0000000000000000 Si
   0.0721649484536084  0.3402061855670104  0.0000000000000000 Si
   0.0309278350515465  0.2886597938144331  0.0000000000000000 Si
   0.9381443298969077  0.4226804123711343  0.0000000000000000 Si
   0.9587628865979392  0.9484536082474238  0.0000000000000000 Si
