Si37
 1.000000
    -5.0000000000000000   12.9903810564000004    0.0000000000000000
   -11.2500000000000000  -10.8253175470000116    0.0000000000000000
     0.0000000000000000    0.0000000000000000   16.0000000000000000
Si
37
Direct
   0.0000000000000000  0.0000000000000000  0.0000000000000000 Si
   0.7837837837837842  0.5405405405405406  0.0000000000000000 Si
   0.9729729729729728  0.5675675675675675  0.0000000000000000 Si
   0.1621621621621623  0.5945945945945946  0.0000000000000000 Si
   0.3513513513513518  0.6216216216216217  0.0000000000000000 Si
   0.5405405405405403  0.6486486486486487  0.0000000000000000 Si
   0.7297297297297298  0.6756756756756757  0.0000000000000000 Si
   0.9189189189189193  0.7027027027027027  0.0000000000000000 Si
   0.1081081081081088  0.7297297297297298  0.0000000000000000 Si
   0.2972972972972974  0.7567567567567568  0.0000000000000000 Si
   0.4864864864864860  0.7837837837837838  0.0000000000000000 Si
   0.6756756756756763  0.8108108108108109  0.0000000000000000 Si
   0.8648648648648658  0.8378378378378379  0.0000000000000000 Si
   0.0540540540540544  0.8648648648648649  0.0000000000000000 Si
   0.2432432432432430  0.8918918918918919  0.0000000000000000 Si
   0.4324324324324325  0.9189189189189190  0.0000000000000000 Si
   0.5945945945945952  0.5135135135135136  0.0000000000000000 Si
   0.6216216216216228  0.9459459459459461  0.0000000000000000 Si
   0.4054054054054057  0.4864864864864865  0.0000000000000000 Si
   0.0270270270270272  0.4324324324324325  0.0000000000000000 Si
   0.1891891891891892  0.0270270270270270  0.0000000000000000 Si
   0.3783783783783784  0.0540540540540541  0.0000000000000000 Si
   0.5675675675675675  0.0810810810810811  0.0000000000000000 Si
   0.7567567567567568  0.1081081081081081  0.0000000000000000 Si
   0.9459459459459461  0.1351351351351351  0.0000000000000000 Si
   0.1351351351351351  0.1621621621621622  0.0000000000000000 Si
   0.3243243243243243  0.1891891891891892  0.0000000000000000 Si
   0.5135135135135136  0.2162162162162162  0.0000000000000000 Si
   0.7027027027027029  0.2432432432432433  0.0000000000000000 Si
   0.8918918918918921  0.2702702702702703  0.0000000000000000 Si
   0.0810810810810811  0.2972972972972973  0.0000000000000000 Si
   0.2702702702702702  0.3243243243243243  0.0000000000000000 Si
   0.4594594594594597  0.3513513513513514  0.0000000000000000 Si
   0.6486486486486487  0.3783783783783784  0.0000000000000000 Si
   0.8378378378378382  0.4054054054054054  0.0000000000000000 Si
   0.2162162162162162  0.4594594594594595  0.0000000000000000 Si
   0.8108108108108114  0.9729729729729730  0.0000000000000000 Si
