Si89
 1.000000
    -7.5000000000000000   17.3205080751999994    0.0000000000000000
   -21.2500000000000000  -15.1554445658000247    0.0000000000000000
     0.0000000000000000    0.0000000000000000   16.0000000000000000
Si
89
Direct
   0.0000000000000000  0.0000000000000000  0.0000000000000000 Si
   0.4943820224719104  0.7078651685393258  0.0000000000000000 Si
   0.3595505617977519  0.6966292134831460  0.0000000000000000 Si
   0.2247191011235952  0.6853932584269663  0.0000000000000000 Si
   0.0898876404494384  0.6741573033707865  0.0000000000000000 Si
   0.9550561797752799  0.6629213483146067  0.0000000000000000 Si
   0.8202247191011240  0.6516853932584270  0.0000000000000000 Si
   0.6853932584269664  0.6404494382022472  0.0000000000000000 Si
   0.5505617977528088  0.6292134831460674  0.0000000000000000 Si
   0.6292134831460672  0.7191011235955056  0.0000000000000000 Si
   0.4157303370786511  0.6179775280898876  0.0000000000000000 Si
   0.1460674157303377  0.5955056179775281  0.0000000000000000 Si
   0.0112359550561791  0.5842696629213483  0.0000000000000000 Si
   0.8764044943820224  0.5730337078651685  0.0000000000000000 Si
   0.7415730337078656  0.5617977528089888  0.0000000000000000 Si
   0.6067415730337080  0.5505617977528090  0.0000000000000000 Si
   0.4719101123595504  0.5393258426966292  0.0000000000000000 Si
   0.3370786516853927  0.5280898876404494  0.0000000000000000 Si
   0.2022471910112351  0.5168539325842696  0.0000000000000000 Si
   0.2808988764044935  0.6067415730337078  0.0000000000000000 Si
   0.7640449438202239  0.7303370786516854  0.0000000000000000 Si
   0.8988764044943824  0.7415730337078652  0.0000000000000000 Si
   0.0337078651685392  0.7528089887640449  0.0000000000000000 Si
   0.5955056179775262  0.9662921348314606  0.0000000000000000 Si
   0.4606741573033712  0.9550561797752809  0.0000000000000000 Si
   0.3258426966292127  0.9438202247191011  0.0000000000000000 Si
   0.1910112359550560  0.9325842696629213  0.0000000000000000 Si
   0.0561797752808992  0.9213483146067416  0.0000000000000000 Si
   0.9213483146067425  0.9101123595505618  0.0000000000000000 Si
   0.7865168539325840  0.8988764044943820  0.0000000000000000 Si
   0.6516853932584254  0.8876404494382022  0.0000000000000000 Si
   0.5168539325842687  0.8764044943820224  0.0000000000000000 Si
   0.3820224719101120  0.8651685393258427  0.0000000000000000 Si
   0.2471910112359552  0.8539325842696629  0.0000000000000000 Si
   0.1123595505617967  0.8426966292134831  0.0000000000000000 Si
   0.9775280898876417  0.8314606741573034  0.0000000000000000 Si
   0.8426966292134832  0.8202247191011236  0.0000000000000000 Si
   0.7078651685393247  0.8089887640449438  0.0000000000000000 Si
   0.5730337078651679  0.7977528089887640  0.0000000000000000 Si
   0.4382022471910112  0.7865168539325842  0.0000000000000000 Si
   0.3033707865168545  0.7752808988764045  0.0000000000000000 Si
   0.1685393258426959  0.7640449438202247  0.0000000000000000 Si
   0.0674157303370784  0.5056179775280899  0.0000000000000000 Si
   0.7303370786516847  0.9775280898876404  0.0000000000000000 Si
   0.9325842696629216  0.4943820224719101  0.0000000000000000 Si
   0.6629213483146064  0.4719101123595505  0.0000000000000000 Si
   0.4269662921348312  0.2022471910112359  0.0000000000000000 Si
   0.2921348314606740  0.1910112359550562  0.0000000000000000 Si
   0.1573033707865168  0.1797752808988764  0.0000000000000000 Si
   0.0224719101123596  0.1685393258426966  0.0000000000000000 Si
   0.8876404494382022  0.1573033707865168  0.0000000000000000 Si
   0.7528089887640448  0.1460674157303371  0.0000000000000000 Si
   0.6179775280898876  0.1348314606741573  0.0000000000000000 Si
   0.4831460674157304  0.1235955056179775  0.0000000000000000 Si
   0.5617977528089888  0.2134831460674157  0.0000000000000000 Si
   0.3483146067415730  0.1123595505617977  0.0000000000000000 Si
   0.0786516853932584  0.0898876404494382  0.0000000000000000 Si
   0.9438202247191011  0.0786516853932584  0.0000000000000000 Si
   0.8089887640449438  0.0674157303370786  0.0000000000000000 Si
   0.6741573033707865  0.0561797752808989  0.0000000000000000 Si
   0.5393258426966292  0.0449438202247191  0.0000000000000000 Si
   0.4044943820224719  0.0337078651685393  0.0000000000000000 Si
   0.2696629213483146  0.0224719101123595  0.0000000000000000 Si
   0.1348314606741573  0.0112359550561798  0.0000000000000000 Si
   0.2134831460674156  0.1011235955056180  0.0000000000000000 Si
   0.6966292134831460  0.2247191011235955  0.0000000000000000 Si
   0.8314606741573032  0.2359550561797753  0.0000000000000000 Si
   0.9662921348314608  0.2471910112359550  0.0000000000000000 Si
   0.5280898876404496  0.4606741573033708  0.0000000000000000 Si
   0.3932584269662920  0.4494382022471910  0.0000000000000000 Si
   0.2584269662921344  0.4382022471910112  0.0000000000000000 Si
   0.1235955056179776  0.4269662921348314  0.0000000000000000 Si
   0.9887640449438209  0.4157303370786517  0.0000000000000000 Si
   0.8539325842696623  0.4044943820224719  0.0000000000000000 Si
   0.7191011235955056  0.3932584269662921  0.0000000000000000 Si
   0.5842696629213480  0.3820224719101123  0.0000000000000000 Si
   0.4494382022471912  0.3707865168539326  0.0000000000000000 Si
   0.3146067415730336  0.3595505617977528  0.0000000000000000 Si
   0.1797752808988760  0.3483146067415730  0.0000000000000000 Si
   0.0449438202247192  0.3370786516853932  0.0000000000000000 Si
   0.9101123595505620  0.3258426966292135  0.0000000000000000 Si
   0.7752808988764044  0.3146067415730337  0.0000000000000000 Si
   0.6404494382022468  0.3033707865168539  0.0000000000000000 Si
   0.5056179775280896  0.2921348314606741  0.0000000000000000 Si
   0.3707865168539328  0.2808988764044944  0.0000000000000000 Si
   0.2359550561797752  0.2696629213483146  0.0000000000000000 Si
   0.1011235955056176  0.2584269662921348  0.0000000000000000 Si
   0.7977528089887631  0.4831460674157303  0.0000000000000000 Si
   0.8651685393258433  0.9887640449438202  0.0000000000000000 Si
