Si89
 1.000000
    -0.0000000000000000   -4.3301270187999998   -0.0000000000000000
  -111.2500000000000000    2.1650635093999995   -0.0000000000000000
    -0.0000000000000000   -0.0000000000000000  -16.0000000000000000
Si
89
Direct
   0.0000000000000000  0.0000000000000000  0.0000000000000000 Si
   0.1460674157303359  0.2921348314606742  0.0000000000000000 Si
   0.6516853932584254  0.3033707865168540  0.0000000000000000 Si
   0.1573033707865186  0.3146067415730337  0.0000000000000000 Si
   0.6629213483146046  0.3258426966292135  0.0000000000000000 Si
   0.1685393258426942  0.3370786516853933  0.0000000000000000 Si
   0.6741573033707873  0.3483146067415730  0.0000000000000000 Si
   0.1797752808988768  0.3595505617977528  0.0000000000000000 Si
   0.6853932584269664  0.3707865168539326  0.0000000000000000 Si
   0.6404494382022463  0.2808988764044944  0.0000000000000000 Si
   0.1910112359550524  0.3820224719101124  0.0000000000000000 Si
   0.2022471910112351  0.4044943820224719  0.0000000000000000 Si
   0.7078651685393247  0.4157303370786517  0.0000000000000000 Si
   0.2134831460674143  0.4269662921348315  0.0000000000000000 Si
   0.7191011235955074  0.4382022471910112  0.0000000000000000 Si
   0.2247191011235969  0.4494382022471910  0.0000000000000000 Si
   0.7303370786516865  0.4606741573033708  0.0000000000000000 Si
   0.2359550561797725  0.4719101123595506  0.0000000000000000 Si
   0.7415730337078621  0.4831460674157304  0.0000000000000000 Si
   0.6966292134831420  0.3932584269662922  0.0000000000000000 Si
   0.1348314606741567  0.2696629213483146  0.0000000000000000 Si
   0.6292134831460672  0.2584269662921348  0.0000000000000000 Si
   0.1235955056179776  0.2471910112359551  0.0000000000000000 Si
   0.5168539325842687  0.0337078651685394  0.0000000000000000 Si
   0.0224719101123583  0.0449438202247191  0.0000000000000000 Si
   0.5280898876404478  0.0561797752808989  0.0000000000000000 Si
   0.0337078651685374  0.0674157303370787  0.0000000000000000 Si
   0.5393258426966270  0.0786516853932584  0.0000000000000000 Si
   0.0449438202247165  0.0898876404494382  0.0000000000000000 Si
   0.5505617977528061  0.1011235955056180  0.0000000000000000 Si
   0.0561797752808957  0.1123595505617978  0.0000000000000000 Si
   0.5617977528089853  0.1235955056179776  0.0000000000000000 Si
   0.0674157303370819  0.1348314606741573  0.0000000000000000 Si
   0.5730337078651644  0.1460674157303371  0.0000000000000000 Si
   0.0786516853932540  0.1573033707865169  0.0000000000000000 Si
   0.5842696629213506  0.1685393258426966  0.0000000000000000 Si
   0.0898876404494402  0.1797752808988764  0.0000000000000000 Si
   0.5955056179775298  0.1910112359550562  0.0000000000000000 Si
   0.1011235955056122  0.2022471910112360  0.0000000000000000 Si
   0.6067415730337018  0.2134831460674158  0.0000000000000000 Si
   0.1123595505617985  0.2247191011235955  0.0000000000000000 Si
   0.6179775280898880  0.2359550561797753  0.0000000000000000 Si
   0.2471910112359552  0.4943820224719101  0.0000000000000000 Si
   0.0112359550561791  0.0224719101123596  0.0000000000000000 Si
   0.7528089887640448  0.5056179775280899  0.0000000000000000 Si
   0.7640449438202239  0.5280898876404494  0.0000000000000000 Si
   0.8988764044943824  0.7977528089887640  0.0000000000000000 Si
   0.4044943820224720  0.8089887640449438  0.0000000000000000 Si
   0.9101123595505616  0.8202247191011236  0.0000000000000000 Si
   0.4157303370786511  0.8314606741573034  0.0000000000000000 Si
   0.9213483146067416  0.8426966292134832  0.0000000000000000 Si
   0.4269662921348312  0.8539325842696629  0.0000000000000000 Si
   0.9325842696629216  0.8651685393258427  0.0000000000000000 Si
   0.4382022471910112  0.8764044943820225  0.0000000000000000 Si
   0.3932584269662911  0.7865168539325843  0.0000000000000000 Si
   0.9438202247191008  0.8876404494382022  0.0000000000000000 Si
   0.9550561797752808  0.9101123595505618  0.0000000000000000 Si
   0.4606741573033708  0.9213483146067416  0.0000000000000000 Si
   0.9662921348314608  0.9325842696629214  0.0000000000000000 Si
   0.4719101123595504  0.9438202247191011  0.0000000000000000 Si
   0.9775280898876404  0.9550561797752809  0.0000000000000000 Si
   0.4831460674157304  0.9662921348314607  0.0000000000000000 Si
   0.9887640449438202  0.9775280898876404  0.0000000000000000 Si
   0.4943820224719101  0.9887640449438202  0.0000000000000000 Si
   0.4494382022471912  0.8988764044943820  0.0000000000000000 Si
   0.8876404494382015  0.7752808988764045  0.0000000000000000 Si
   0.3820224719101120  0.7640449438202247  0.0000000000000000 Si
   0.8764044943820224  0.7528089887640450  0.0000000000000000 Si
   0.2696629213483135  0.5393258426966292  0.0000000000000000 Si
   0.7752808988764031  0.5505617977528090  0.0000000000000000 Si
   0.2808988764044926  0.5617977528089888  0.0000000000000000 Si
   0.7865168539325822  0.5730337078651686  0.0000000000000000 Si
   0.2921348314606753  0.5842696629213483  0.0000000000000000 Si
   0.7977528089887649  0.5955056179775281  0.0000000000000000 Si
   0.3033707865168509  0.6067415730337079  0.0000000000000000 Si
   0.8089887640449440  0.6179775280898876  0.0000000000000000 Si
   0.3146067415730336  0.6292134831460674  0.0000000000000000 Si
   0.8202247191011232  0.6404494382022472  0.0000000000000000 Si
   0.3258426966292127  0.6516853932584270  0.0000000000000000 Si
   0.8314606741573023  0.6629213483146068  0.0000000000000000 Si
   0.3370786516853936  0.6741573033707865  0.0000000000000000 Si
   0.8426966292134832  0.6853932584269663  0.0000000000000000 Si
   0.3483146067415710  0.6966292134831461  0.0000000000000000 Si
   0.8539325842696623  0.7078651685393258  0.0000000000000000 Si
   0.3595505617977537  0.7191011235955056  0.0000000000000000 Si
   0.8651685393258433  0.7303370786516854  0.0000000000000000 Si
   0.3707865168539310  0.7415730337078652  0.0000000000000000 Si
   0.2584269662921344  0.5168539325842697  0.0000000000000000 Si
   0.5056179775280896  0.0112359550561798  0.0000000000000000 Si
