Si96
 1.000000
   -21.2500000000000000    6.4951905281999984   -0.0000000000000000
    16.2500000000000000   19.4855715845999953   -0.0000000000000000
    -0.0000000000000000   -0.0000000000000000  -16.0000000000000000
Si
96
Direct
   0.0000000000000000  0.0000000000000000  0.0000000000000000 Si
   0.0937499999999920  0.9687499999999947  0.0000000000000000 Si
   0.2083333333333268  0.0416666666666625  0.0000000000000000 Si
   0.3229166666666599  0.1145833333333286  0.0000000000000000 Si
   0.4374999999999929  0.1874999999999947  0.0000000000000000 Si
   0.5520833333333268  0.2604166666666625  0.0000000000000000 Si
   0.6666666666666599  0.3333333333333286  0.0000000000000000 Si
   0.7812499999999929  0.4062499999999956  0.0000000000000000 Si
   0.8958333333333277  0.4791666666666625  0.0000000000000000 Si
   0.0104166666666607  0.5520833333333295  0.0000000000000000 Si
   0.9791666666666590  0.8958333333333286  0.0000000000000000 Si
   0.1249999999999929  0.6249999999999956  0.0000000000000000 Si
   0.3541666666666607  0.7708333333333295  0.0000000000000000 Si
   0.4687499999999938  0.8437499999999956  0.0000000000000000 Si
   0.5833333333333277  0.9166666666666634  0.0000000000000000 Si
   0.6979166666666607  0.9895833333333295  0.0000000000000000 Si
   0.8124999999999938  0.0624999999999960  0.0000000000000000 Si
   0.9270833333333286  0.1354166666666634  0.0000000000000000 Si
   0.0416666666666616  0.2083333333333299  0.0000000000000000 Si
   0.1562499999999947  0.2812499999999964  0.0000000000000000 Si
   0.2708333333333286  0.3541666666666634  0.0000000000000000 Si
   0.2395833333333277  0.6979166666666625  0.0000000000000000 Si
   0.3854166666666616  0.4270833333333299  0.0000000000000000 Si
   0.8645833333333268  0.8229166666666616  0.0000000000000000 Si
   0.6354166666666590  0.6770833333333286  0.0000000000000000 Si
   0.3437499999999893  0.2187499999999929  0.0000000000000000 Si
   0.4583333333333233  0.2916666666666607  0.0000000000000000 Si
   0.5729166666666572  0.3645833333333268  0.0000000000000000 Si
   0.6874999999999893  0.4374999999999929  0.0000000000000000 Si
   0.8020833333333250  0.5104166666666607  0.0000000000000000 Si
   0.9166666666666572  0.5833333333333268  0.0000000000000000 Si
   0.0312499999999911  0.6562499999999938  0.0000000000000000 Si
   0.1458333333333250  0.7291666666666607  0.0000000000000000 Si
   0.2604166666666572  0.8020833333333277  0.0000000000000000 Si
   0.7499999999999929  0.7499999999999947  0.0000000000000000 Si
   0.3749999999999911  0.8749999999999938  0.0000000000000000 Si
   0.6041666666666572  0.0208333333333277  0.0000000000000000 Si
   0.7187499999999911  0.0937499999999938  0.0000000000000000 Si
   0.8333333333333250  0.1666666666666616  0.0000000000000000 Si
   0.9479166666666590  0.2395833333333277  0.0000000000000000 Si
   0.0624999999999911  0.3124999999999947  0.0000000000000000 Si
   0.1770833333333250  0.3854166666666616  0.0000000000000000 Si
   0.2916666666666590  0.4583333333333277  0.0000000000000000 Si
   0.4062499999999911  0.5312499999999947  0.0000000000000000 Si
   0.5208333333333268  0.6041666666666616  0.0000000000000000 Si
   0.4895833333333250  0.9479166666666607  0.0000000000000000 Si
   0.4999999999999947  0.4999999999999964  0.0000000000000000 Si
   0.6145833333333286  0.5729166666666634  0.0000000000000000 Si
   0.7291666666666616  0.6458333333333304  0.0000000000000000 Si
   0.7083333333333313  0.5416666666666654  0.0000000000000000 Si
   0.8229166666666647  0.6145833333333319  0.0000000000000000 Si
   0.9374999999999982  0.6874999999999987  0.0000000000000000 Si
   0.0520833333333317  0.7604166666666656  0.0000000000000000 Si
   0.1666666666666650  0.8333333333333321  0.0000000000000000 Si
   0.2812499999999982  0.9062499999999989  0.0000000000000000 Si
   0.3958333333333319  0.9791666666666659  0.0000000000000000 Si
   0.5104166666666654  0.0520833333333325  0.0000000000000000 Si
   0.6249999999999987  0.1249999999999991  0.0000000000000000 Si
   0.5937499999999978  0.4687499999999984  0.0000000000000000 Si
   0.7395833333333321  0.1979166666666659  0.0000000000000000 Si
   0.9687499999999991  0.3437499999999993  0.0000000000000000 Si
   0.0833333333333325  0.4166666666666661  0.0000000000000000 Si
   0.1979166666666660  0.4895833333333329  0.0000000000000000 Si
   0.3124999999999993  0.5624999999999996  0.0000000000000000 Si
   0.4270833333333328  0.6354166666666663  0.0000000000000000 Si
   0.5416666666666663  0.7083333333333330  0.0000000000000000 Si
   0.6562499999999997  0.7812499999999998  0.0000000000000000 Si
   0.7708333333333331  0.8541666666666665  0.0000000000000000 Si
   0.8854166666666665  0.9270833333333333  0.0000000000000000 Si
   0.8541666666666656  0.2708333333333327  0.0000000000000000 Si
   0.4791666666666643  0.3958333333333317  0.0000000000000000 Si
   0.3645833333333308  0.3229166666666652  0.0000000000000000 Si
   0.2499999999999973  0.2499999999999982  0.0000000000000000 Si
   0.8437499999999947  0.7187499999999964  0.0000000000000000 Si
   0.9583333333333286  0.7916666666666634  0.0000000000000000 Si
   0.0729166666666625  0.8645833333333304  0.0000000000000000 Si
   0.1874999999999956  0.9374999999999969  0.0000000000000000 Si
   0.3020833333333286  0.0104166666666639  0.0000000000000000 Si
   0.4166666666666625  0.0833333333333308  0.0000000000000000 Si
   0.5312499999999956  0.1562499999999973  0.0000000000000000 Si
   0.6458333333333295  0.2291666666666639  0.0000000000000000 Si
   0.7604166666666634  0.3020833333333308  0.0000000000000000 Si
   0.8749999999999964  0.3749999999999973  0.0000000000000000 Si
   0.9895833333333295  0.4479166666666643  0.0000000000000000 Si
   0.1041666666666634  0.5208333333333313  0.0000000000000000 Si
   0.2187499999999964  0.5937499999999973  0.0000000000000000 Si
   0.3333333333333299  0.6666666666666643  0.0000000000000000 Si
   0.4479166666666639  0.7395833333333313  0.0000000000000000 Si
   0.5624999999999964  0.8124999999999978  0.0000000000000000 Si
   0.6770833333333304  0.8854166666666647  0.0000000000000000 Si
   0.7916666666666639  0.9583333333333317  0.0000000000000000 Si
   0.9062499999999969  0.0312499999999980  0.0000000000000000 Si
   0.0208333333333308  0.1041666666666650  0.0000000000000000 Si
   0.1354166666666643  0.1770833333333317  0.0000000000000000 Si
   0.2291666666666572  0.1458333333333268  0.0000000000000000 Si
   0.1145833333333233  0.0729166666666599  0.0000000000000000 Si
