Si96
 1.000000
     0.0000000000000000   12.9903810563999969    0.0000000000000000
   -40.0000000000000000   -4.3301270187999990    0.0000000000000000
     0.0000000000000000    0.0000000000000000   16.0000000000000000
Si
96
Direct
   0.0000000000000000  0.0000000000000000  0.0000000000000000 Si
   0.2187500000000426  0.1562500000000075  0.0000000000000000 Si
   0.0416666666667087  0.1250000000000071  0.0000000000000000 Si
   0.8645833333333748  0.0937500000000071  0.0000000000000000 Si
   0.6875000000000409  0.0625000000000071  0.0000000000000000 Si
   0.5104166666667069  0.0312500000000067  0.0000000000000000 Si
   0.3333333333333730  0.0000000000000067  0.0000000000000000 Si
   0.1562500000000391  0.9687500000000067  0.0000000000000000 Si
   0.9791666666667052  0.9375000000000064  0.0000000000000000 Si
   0.8020833333333712  0.9062500000000064  0.0000000000000000 Si
   0.3958333333333766  0.1875000000000075  0.0000000000000000 Si
   0.6250000000000373  0.8750000000000064  0.0000000000000000 Si
   0.2708333333333695  0.8125000000000060  0.0000000000000000 Si
   0.0937500000000355  0.7812500000000060  0.0000000000000000 Si
   0.9166666666666998  0.7500000000000058  0.0000000000000000 Si
   0.7395833333333677  0.7187500000000058  0.0000000000000000 Si
   0.5625000000000338  0.6875000000000058  0.0000000000000000 Si
   0.3854166666666980  0.6562500000000053  0.0000000000000000 Si
   0.2083333333333659  0.6250000000000053  0.0000000000000000 Si
   0.0312500000000320  0.5937500000000053  0.0000000000000000 Si
   0.8541666666666963  0.5625000000000051  0.0000000000000000 Si
   0.4479166666667034  0.8437500000000060  0.0000000000000000 Si
   0.6770833333333641  0.5312500000000051  0.0000000000000000 Si
   0.5729166666667105  0.2187500000000075  0.0000000000000000 Si
   0.9270833333333783  0.2812500000000075  0.0000000000000000 Si
   0.4687500000000568  0.9062500000000098  0.0000000000000000 Si
   0.2916666666667247  0.8750000000000098  0.0000000000000000 Si
   0.1145833333333890  0.8437500000000098  0.0000000000000000 Si
   0.9375000000000568  0.8125000000000098  0.0000000000000000 Si
   0.7604166666667211  0.7812500000000093  0.0000000000000000 Si
   0.5833333333333872  0.7500000000000093  0.0000000000000000 Si
   0.4062500000000551  0.7187500000000093  0.0000000000000000 Si
   0.2291666666667194  0.6875000000000089  0.0000000000000000 Si
   0.0520833333333854  0.6562500000000089  0.0000000000000000 Si
   0.7500000000000462  0.2500000000000075  0.0000000000000000 Si
   0.8750000000000533  0.6250000000000089  0.0000000000000000 Si
   0.5208333333333837  0.5625000000000084  0.0000000000000000 Si
   0.3437500000000515  0.5312500000000084  0.0000000000000000 Si
   0.1666666666667158  0.5000000000000084  0.0000000000000000 Si
   0.9895833333333819  0.4687500000000084  0.0000000000000000 Si
   0.8125000000000497  0.4375000000000084  0.0000000000000000 Si
   0.6354166666667140  0.4062500000000080  0.0000000000000000 Si
   0.4583333333333801  0.3750000000000080  0.0000000000000000 Si
   0.2812500000000480  0.3437500000000080  0.0000000000000000 Si
   0.1041666666667123  0.3125000000000075  0.0000000000000000 Si
   0.6979166666667176  0.5937500000000084  0.0000000000000000 Si
   0.5000000000000302  0.5000000000000051  0.0000000000000000 Si
   0.3229166666666963  0.4687500000000049  0.0000000000000000 Si
   0.1458333333333623  0.4375000000000049  0.0000000000000000 Si
   0.5416666666666790  0.6250000000000021  0.0000000000000000 Si
   0.3645833333333450  0.5937500000000020  0.0000000000000000 Si
   0.1875000000000115  0.5625000000000019  0.0000000000000000 Si
   0.0104166666666772  0.5312500000000018  0.0000000000000000 Si
   0.8333333333333433  0.5000000000000017  0.0000000000000000 Si
   0.6562500000000093  0.4687500000000016  0.0000000000000000 Si
   0.4791666666666750  0.4375000000000014  0.0000000000000000 Si
   0.3020833333333415  0.4062500000000013  0.0000000000000000 Si
   0.1250000000000075  0.3750000000000013  0.0000000000000000 Si
   0.7187500000000133  0.6562500000000022  0.0000000000000000 Si
   0.9479166666666734  0.3437500000000012  0.0000000000000000 Si
   0.5937500000000058  0.2812500000000009  0.0000000000000000 Si
   0.4166666666666716  0.2500000000000008  0.0000000000000000 Si
   0.2395833333333375  0.2187500000000007  0.0000000000000000 Si
   0.0625000000000038  0.1875000000000006  0.0000000000000000 Si
   0.8854166666666697  0.1562500000000005  0.0000000000000000 Si
   0.7083333333333358  0.1250000000000004  0.0000000000000000 Si
   0.5312500000000019  0.0937500000000003  0.0000000000000000 Si
   0.3541666666666679  0.0625000000000002  0.0000000000000000 Si
   0.1770833333333340  0.0312500000000001  0.0000000000000000 Si
   0.7708333333333395  0.3125000000000011  0.0000000000000000 Si
   0.8958333333333468  0.6875000000000023  0.0000000000000000 Si
   0.0729166666666812  0.7187500000000024  0.0000000000000000 Si
   0.2500000000000151  0.7500000000000026  0.0000000000000000 Si
   0.9687500000000284  0.4062500000000049  0.0000000000000000 Si
   0.7916666666666936  0.3750000000000047  0.0000000000000000 Si
   0.6145833333333597  0.3437500000000044  0.0000000000000000 Si
   0.4375000000000266  0.3125000000000044  0.0000000000000000 Si
   0.2604166666666918  0.2812500000000042  0.0000000000000000 Si
   0.0833333333333579  0.2500000000000042  0.0000000000000000 Si
   0.9062500000000249  0.2187500000000042  0.0000000000000000 Si
   0.7291666666666901  0.1875000000000040  0.0000000000000000 Si
   0.5520833333333561  0.1562500000000038  0.0000000000000000 Si
   0.3750000000000231  0.1250000000000038  0.0000000000000000 Si
   0.1979166666666883  0.0937500000000038  0.0000000000000000 Si
   0.0208333333333544  0.0625000000000036  0.0000000000000000 Si
   0.8437500000000204  0.0312500000000036  0.0000000000000000 Si
   0.6666666666666865  0.0000000000000033  0.0000000000000000 Si
   0.4895833333333526  0.9687500000000032  0.0000000000000000 Si
   0.3125000000000187  0.9375000000000032  0.0000000000000000 Si
   0.1354166666666847  0.9062500000000030  0.0000000000000000 Si
   0.9583333333333499  0.8750000000000029  0.0000000000000000 Si
   0.7812500000000169  0.8437500000000029  0.0000000000000000 Si
   0.6041666666666829  0.8125000000000027  0.0000000000000000 Si
   0.4270833333333481  0.7812500000000026  0.0000000000000000 Si
   0.6458333333333925  0.9375000000000098  0.0000000000000000 Si
   0.8229166666667247  0.9687500000000098  0.0000000000000000 Si
