Si45
 1.000000
    -5.0000000000000000   12.9903810564000004    0.0000000000000000
   -16.2500000000000000   -6.4951905282000126    0.0000000000000000
     0.0000000000000000    0.0000000000000000   16.0000000000000000
Si
45
Direct
   0.0000000000000000  0.0000000000000000  0.0000000000000000 Si
   0.2666666666666666  0.5333333333333333  0.0000000000000000 Si
   0.4444444444444446  0.5555555555555556  0.0000000000000000 Si
   0.6222222222222227  0.5777777777777778  0.0000000000000000 Si
   0.7999999999999998  0.6000000000000000  0.0000000000000000 Si
   0.9777777777777779  0.6222222222222222  0.0000000000000000 Si
   0.1555555555555559  0.6444444444444445  0.0000000000000000 Si
   0.3333333333333339  0.6666666666666667  0.0000000000000000 Si
   0.5111111111111111  0.6888888888888889  0.0000000000000000 Si
   0.6888888888888891  0.7111111111111111  0.0000000000000000 Si
   0.8666666666666671  0.7333333333333334  0.0000000000000000 Si
   0.0444444444444443  0.7555555555555555  0.0000000000000000 Si
   0.2222222222222223  0.7777777777777778  0.0000000000000000 Si
   0.4000000000000004  0.8000000000000000  0.0000000000000000 Si
   0.5777777777777784  0.8222222222222223  0.0000000000000000 Si
   0.7555555555555555  0.8444444444444444  0.0000000000000000 Si
   0.9333333333333336  0.8666666666666667  0.0000000000000000 Si
   0.1111111111111116  0.8888888888888890  0.0000000000000000 Si
   0.2888888888888888  0.9111111111111111  0.0000000000000000 Si
   0.4666666666666668  0.9333333333333333  0.0000000000000000 Si
   0.0888888888888895  0.5111111111111112  0.0000000000000000 Si
   0.6444444444444448  0.9555555555555556  0.0000000000000000 Si
   0.9111111111111114  0.4888888888888889  0.0000000000000000 Si
   0.5555555555555558  0.4444444444444445  0.0000000000000000 Si
   0.1777777777777778  0.0222222222222222  0.0000000000000000 Si
   0.3555555555555556  0.0444444444444444  0.0000000000000000 Si
   0.5333333333333333  0.0666666666666667  0.0000000000000000 Si
   0.7111111111111111  0.0888888888888889  0.0000000000000000 Si
   0.8888888888888890  0.1111111111111111  0.0000000000000000 Si
   0.0666666666666667  0.1333333333333333  0.0000000000000000 Si
   0.2444444444444445  0.1555555555555556  0.0000000000000000 Si
   0.4222222222222223  0.1777777777777778  0.0000000000000000 Si
   0.6000000000000001  0.2000000000000000  0.0000000000000000 Si
   0.7777777777777779  0.2222222222222222  0.0000000000000000 Si
   0.9555555555555557  0.2444444444444445  0.0000000000000000 Si
   0.1333333333333333  0.2666666666666667  0.0000000000000000 Si
   0.3111111111111113  0.2888888888888889  0.0000000000000000 Si
   0.4888888888888889  0.3111111111111111  0.0000000000000000 Si
   0.6666666666666670  0.3333333333333334  0.0000000000000000 Si
   0.8444444444444446  0.3555555555555556  0.0000000000000000 Si
   0.0222222222222221  0.3777777777777778  0.0000000000000000 Si
   0.2000000000000002  0.4000000000000000  0.0000000000000000 Si
   0.3777777777777778  0.4222222222222222  0.0000000000000000 Si
   0.7333333333333334  0.4666666666666667  0.0000000000000000 Si
   0.8222222222222229  0.9777777777777779  0.0000000000000000 Si
