Si77
 1.000000
    -2.5000000000000000    8.6602540375999997    0.0000000000000000
   -43.7500000000000000  -15.1554445657999963    0.0000000000000000
     0.0000000000000000    0.0000000000000000   16.0000000000000000
Si
77
Direct
   0.0000000000000000  0.0000000000000000  0.0000000000000000 Si
   0.7272727272727266  0.7012987012987013  0.0000000000000000 Si
   0.4545454545454550  0.6883116883116883  0.0000000000000000 Si
   0.1818181818181817  0.6753246753246753  0.0000000000000000 Si
   0.9090909090909083  0.6623376623376623  0.0000000000000000 Si
   0.6363636363636367  0.6493506493506493  0.0000000000000000 Si
   0.3636363636363633  0.6363636363636364  0.0000000000000000 Si
   0.0909090909090899  0.6233766233766234  0.0000000000000000 Si
   0.8181818181818201  0.6103896103896105  0.0000000000000000 Si
   0.5454545454545467  0.5974025974025975  0.0000000000000000 Si
   0.2727272727272751  0.5844155844155845  0.0000000000000000 Si
   0.0000000000000018  0.5714285714285715  0.0000000000000000 Si
   0.7272727272727284  0.5584415584415585  0.0000000000000000 Si
   0.4545454545454568  0.5454545454545455  0.0000000000000000 Si
   0.1818181818181834  0.5324675324675325  0.0000000000000000 Si
   0.9090909090909101  0.5194805194805195  0.0000000000000000 Si
   0.0000000000000000  0.7142857142857143  0.0000000000000000 Si
   0.2727272727272734  0.7272727272727273  0.0000000000000000 Si
   0.5454545454545467  0.7402597402597403  0.0000000000000000 Si
   0.8181818181818183  0.7532467532467533  0.0000000000000000 Si
   0.1818181818181834  0.9610389610389611  0.0000000000000000 Si
   0.9090909090909101  0.9480519480519481  0.0000000000000000 Si
   0.6363636363636367  0.9350649350649352  0.0000000000000000 Si
   0.3636363636363669  0.9220779220779222  0.0000000000000000 Si
   0.0909090909090935  0.9090909090909092  0.0000000000000000 Si
   0.8181818181818201  0.8961038961038962  0.0000000000000000 Si
   0.5454545454545467  0.8831168831168832  0.0000000000000000 Si
   0.6363636363636367  0.5064935064935066  0.0000000000000000 Si
   0.2727272727272734  0.8701298701298702  0.0000000000000000 Si
   0.7272727272727302  0.8441558441558442  0.0000000000000000 Si
   0.4545454545454568  0.8311688311688312  0.0000000000000000 Si
   0.1818181818181834  0.8181818181818182  0.0000000000000000 Si
   0.9090909090909101  0.8051948051948052  0.0000000000000000 Si
   0.6363636363636367  0.7922077922077922  0.0000000000000000 Si
   0.3636363636363633  0.7792207792207793  0.0000000000000000 Si
   0.0909090909090899  0.7662337662337663  0.0000000000000000 Si
   0.0000000000000000  0.8571428571428572  0.0000000000000000 Si
   0.4545454545454568  0.9740259740259741  0.0000000000000000 Si
   0.3636363636363651  0.4935064935064936  0.0000000000000000 Si
   0.8181818181818183  0.4675324675324676  0.0000000000000000 Si
   0.0909090909090908  0.1948051948051948  0.0000000000000000 Si
   0.8181818181818183  0.1818181818181818  0.0000000000000000 Si
   0.5454545454545454  0.1688311688311688  0.0000000000000000 Si
   0.2727272727272725  0.1558441558441558  0.0000000000000000 Si
   0.0000000000000004  0.1428571428571429  0.0000000000000000 Si
   0.7272727272727275  0.1298701298701299  0.0000000000000000 Si
   0.4545454545454546  0.1168831168831169  0.0000000000000000 Si
   0.1818181818181821  0.1038961038961039  0.0000000000000000 Si
   0.9090909090909092  0.0909090909090909  0.0000000000000000 Si
   0.6363636363636362  0.0779220779220779  0.0000000000000000 Si
   0.3636363636363638  0.0649350649350649  0.0000000000000000 Si
   0.0909090909090911  0.0519480519480520  0.0000000000000000 Si
   0.8181818181818181  0.0389610389610390  0.0000000000000000 Si
   0.5454545454545455  0.0259740259740260  0.0000000000000000 Si
   0.2727272727272728  0.0129870129870130  0.0000000000000000 Si
   0.3636363636363642  0.2077922077922078  0.0000000000000000 Si
   0.6363636363636367  0.2207792207792208  0.0000000000000000 Si
   0.9090909090909092  0.2337662337662338  0.0000000000000000 Si
   0.1818181818181825  0.2467532467532468  0.0000000000000000 Si
   0.5454545454545467  0.4545454545454546  0.0000000000000000 Si
   0.2727272727272734  0.4415584415584416  0.0000000000000000 Si
   0.0000000000000000  0.4285714285714286  0.0000000000000000 Si
   0.7272727272727284  0.4155844155844156  0.0000000000000000 Si
   0.4545454545454550  0.4025974025974026  0.0000000000000000 Si
   0.1818181818181817  0.3896103896103896  0.0000000000000000 Si
   0.9090909090909092  0.3766233766233766  0.0000000000000000 Si
   0.0909090909090917  0.4805194805194806  0.0000000000000000 Si
   0.6363636363636367  0.3636363636363636  0.0000000000000000 Si
   0.0909090909090908  0.3376623376623377  0.0000000000000000 Si
   0.8181818181818183  0.3246753246753247  0.0000000000000000 Si
   0.5454545454545450  0.3116883116883117  0.0000000000000000 Si
   0.2727272727272734  0.2987012987012987  0.0000000000000000 Si
   0.0000000000000009  0.2857142857142858  0.0000000000000000 Si
   0.7272727272727284  0.2727272727272728  0.0000000000000000 Si
   0.4545454545454550  0.2597402597402598  0.0000000000000000 Si
   0.3636363636363633  0.3506493506493507  0.0000000000000000 Si
   0.7272727272727302  0.9870129870129871  0.0000000000000000 Si
