Si64
 1.000000
   -15.0000000000000000    8.6602540375999979   -0.0000000000000000
    13.7500000000000000   15.1554445657999963   -0.0000000000000000
    -0.0000000000000000   -0.0000000000000000  -16.0000000000000000
Si
64
Direct
   0.0000000000000000  0.0000000000000000  0.0000000000000000 Si
   0.2187500000000018  0.8750000000000009  0.0000000000000000 Si
   0.0781250000000018  0.8125000000000009  0.0000000000000000 Si
   0.9375000000000018  0.7500000000000009  0.0000000000000000 Si
   0.7968750000000018  0.6875000000000009  0.0000000000000000 Si
   0.6562500000000018  0.6250000000000009  0.0000000000000000 Si
   0.5156250000000018  0.5625000000000009  0.0000000000000000 Si
   0.3750000000000018  0.5000000000000009  0.0000000000000000 Si
   0.2343750000000027  0.4375000000000013  0.0000000000000000 Si
   0.0937500000000027  0.3750000000000013  0.0000000000000000 Si
   0.9531250000000027  0.3125000000000013  0.0000000000000000 Si
   0.8125000000000027  0.2500000000000013  0.0000000000000000 Si
   0.6718750000000027  0.1875000000000013  0.0000000000000000 Si
   0.5312500000000027  0.1250000000000013  0.0000000000000000 Si
   0.3593750000000018  0.9375000000000009  0.0000000000000000 Si
   0.3906250000000027  0.0625000000000013  0.0000000000000000 Si
   0.1093750000000027  0.9375000000000013  0.0000000000000000 Si
   0.9687500000000027  0.8750000000000013  0.0000000000000000 Si
   0.8281250000000027  0.8125000000000013  0.0000000000000000 Si
   0.6875000000000027  0.7500000000000013  0.0000000000000000 Si
   0.5468750000000027  0.6875000000000013  0.0000000000000000 Si
   0.4062500000000027  0.6250000000000013  0.0000000000000000 Si
   0.2656250000000027  0.5625000000000013  0.0000000000000000 Si
   0.1250000000000036  0.5000000000000018  0.0000000000000000 Si
   0.9843750000000036  0.4375000000000018  0.0000000000000000 Si
   0.8437500000000036  0.3750000000000018  0.0000000000000000 Si
   0.7031250000000036  0.3125000000000018  0.0000000000000000 Si
   0.5625000000000036  0.2500000000000018  0.0000000000000000 Si
   0.4218750000000036  0.1875000000000018  0.0000000000000000 Si
   0.2500000000000027  0.0000000000000013  0.0000000000000000 Si
   0.5000000000000018  0.0000000000000009  0.0000000000000000 Si
   0.6406250000000018  0.0625000000000009  0.0000000000000000 Si
   0.7812500000000018  0.1250000000000009  0.0000000000000000 Si
   0.8593750000000000  0.9375000000000000  0.0000000000000000 Si
   0.7187500000000001  0.8750000000000000  0.0000000000000000 Si
   0.5781250000000002  0.8125000000000001  0.0000000000000000 Si
   0.4375000000000002  0.7500000000000001  0.0000000000000000 Si
   0.2968750000000002  0.6875000000000001  0.0000000000000000 Si
   0.1562500000000003  0.6250000000000002  0.0000000000000000 Si
   0.0156250000000004  0.5625000000000002  0.0000000000000000 Si
   0.8750000000000004  0.5000000000000002  0.0000000000000000 Si
   0.7343750000000004  0.4375000000000002  0.0000000000000000 Si
   0.5937500000000004  0.3750000000000002  0.0000000000000000 Si
   0.4531250000000007  0.3125000000000003  0.0000000000000000 Si
   0.3125000000000007  0.2500000000000003  0.0000000000000000 Si
   0.1718750000000007  0.1875000000000003  0.0000000000000000 Si
   0.0312500000000009  0.1250000000000004  0.0000000000000000 Si
   0.8906250000000009  0.0625000000000004  0.0000000000000000 Si
   0.7500000000000009  0.0000000000000004  0.0000000000000000 Si
   0.6093750000000009  0.9375000000000004  0.0000000000000000 Si
   0.4687500000000009  0.8750000000000004  0.0000000000000000 Si
   0.3281250000000009  0.8125000000000004  0.0000000000000000 Si
   0.1875000000000009  0.7500000000000004  0.0000000000000000 Si
   0.0468750000000013  0.6875000000000007  0.0000000000000000 Si
   0.9062500000000013  0.6250000000000007  0.0000000000000000 Si
   0.7656250000000013  0.5625000000000007  0.0000000000000000 Si
   0.6250000000000013  0.5000000000000007  0.0000000000000000 Si
   0.4843750000000013  0.4375000000000007  0.0000000000000000 Si
   0.3437500000000013  0.3750000000000007  0.0000000000000000 Si
   0.2031250000000013  0.3125000000000007  0.0000000000000000 Si
   0.0625000000000018  0.2500000000000009  0.0000000000000000 Si
   0.9218750000000018  0.1875000000000009  0.0000000000000000 Si
   0.2812500000000036  0.1250000000000018  0.0000000000000000 Si
   0.1406250000000036  0.0625000000000018  0.0000000000000000 Si
