Si49
 1.000000
     2.5000000000000000  -17.3205080751999958   -0.0000000000000000
   -16.2500000000000000    6.4951905282000268   -0.0000000000000000
    -0.0000000000000000   -0.0000000000000000  -16.0000000000000000
Si
49
Direct
   0.0000000000000000  0.0000000000000000  0.0000000000000000 Si
   0.6530612244897931  0.4081632653061238  0.0000000000000000 Si
   0.7551020408163236  0.3469387755102056  0.0000000000000000 Si
   0.8571428571428545  0.2857142857142871  0.0000000000000000 Si
   0.9591836734693850  0.2244897959183687  0.0000000000000000 Si
   0.0612244897959151  0.1632653061224507  0.0000000000000000 Si
   0.1632653061224456  0.1020408163265323  0.0000000000000000 Si
   0.2653061224489766  0.0408163265306138  0.0000000000000000 Si
   0.3673469387755071  0.9795918367346954  0.0000000000000000 Si
   0.4693877551020376  0.9183673469387772  0.0000000000000000 Si
   0.5714285714285676  0.8571428571428590  0.0000000000000000 Si
   0.6734693877550986  0.7959183673469408  0.0000000000000000 Si
   0.7755102040816291  0.7346938775510221  0.0000000000000000 Si
   0.8775510204081596  0.6734693877551039  0.0000000000000000 Si
   0.9795918367346896  0.6122448979591857  0.0000000000000000 Si
   0.0816326530612201  0.5510204081632675  0.0000000000000000 Si
   0.1836734693877506  0.4897959183673488  0.0000000000000000 Si
   0.2857142857142820  0.4285714285714306  0.0000000000000000 Si
   0.3877551020408125  0.3673469387755124  0.0000000000000000 Si
   0.4897959183673422  0.3061224489795942  0.0000000000000000 Si
   0.5918367346938727  0.2448979591836760  0.0000000000000000 Si
   0.6938775510204040  0.1836734693877573  0.0000000000000000 Si
   0.5510204081632630  0.4693877551020420  0.0000000000000000 Si
   0.7959183673469346  0.1224489795918391  0.0000000000000000 Si
   0.4489795918367325  0.5306122448979602  0.0000000000000000 Si
   0.2448979591836711  0.6530612244897971  0.0000000000000000 Si
   0.1020408163265305  0.9387755102040817  0.0000000000000000 Si
   0.2040816326530610  0.8775510204081634  0.0000000000000000 Si
   0.3061224489795916  0.8163265306122450  0.0000000000000000 Si
   0.4081632653061221  0.7551020408163267  0.0000000000000000 Si
   0.5102040816326525  0.6938775510204085  0.0000000000000000 Si
   0.6122448979591831  0.6326530612244901  0.0000000000000000 Si
   0.7142857142857136  0.5714285714285718  0.0000000000000000 Si
   0.8163265306122441  0.5102040816326534  0.0000000000000000 Si
   0.9183673469387746  0.4489795918367352  0.0000000000000000 Si
   0.0204081632653050  0.3877551020408169  0.0000000000000000 Si
   0.1224489795918355  0.3265306122448985  0.0000000000000000 Si
   0.2244897959183663  0.2653061224489801  0.0000000000000000 Si
   0.3265306122448965  0.2040816326530619  0.0000000000000000 Si
   0.4285714285714273  0.1428571428571436  0.0000000000000000 Si
   0.5306122448979576  0.0816326530612254  0.0000000000000000 Si
   0.6326530612244883  0.0204081632653069  0.0000000000000000 Si
   0.7346938775510188  0.9591836734693886  0.0000000000000000 Si
   0.8367346938775493  0.8979591836734704  0.0000000000000000 Si
   0.9387755102040798  0.8367346938775519  0.0000000000000000 Si
   0.0408163265306101  0.7755102040816337  0.0000000000000000 Si
   0.1428571428571410  0.7142857142857153  0.0000000000000000 Si
   0.3469387755102020  0.5918367346938787  0.0000000000000000 Si
   0.8979591836734651  0.0612244897959204  0.0000000000000000 Si
