Si87
 1.000000
     7.5000000000000000    0.0000000000000284    0.0000000000000000
    -3.7500000000000000   62.7868417726000416    0.0000000000000000
     0.0000000000000000    0.0000000000000000   16.0000000000000000
Si
87
Direct
   0.0000000000000000  0.0000000000000000  0.0000000000000000 Si
   0.7356321839080397  0.1379310344827602  0.0000000000000000 Si
   0.8850574712643606  0.1034482758620707  0.0000000000000000 Si
   0.0344827586206833  0.0689655172413808  0.0000000000000000 Si
   0.1839080459770059  0.0344827586206908  0.0000000000000000 Si
   0.3333333333333286  0.0000000000000013  0.0000000000000000 Si
   0.4827586206896495  0.9655172413793118  0.0000000000000000 Si
   0.6321839080459721  0.9310344827586221  0.0000000000000000 Si
   0.7816091954022930  0.8965517241379324  0.0000000000000000 Si
   0.5862068965517171  0.1724137931034497  0.0000000000000000 Si
   0.9310344827586157  0.8620689655172429  0.0000000000000000 Si
   0.2298850574712601  0.7931034482758632  0.0000000000000000 Si
   0.3793103448275819  0.7586206896551735  0.0000000000000000 Si
   0.5287356321839036  0.7241379310344840  0.0000000000000000 Si
   0.6781609195402254  0.6896551724137943  0.0000000000000000 Si
   0.8275862068965472  0.6551724137931048  0.0000000000000000 Si
   0.9770114942528689  0.6206896551724150  0.0000000000000000 Si
   0.1264367816091907  0.5862068965517253  0.0000000000000000 Si
   0.2758620689655125  0.5517241379310358  0.0000000000000000 Si
   0.0804597701149365  0.8275862068965532  0.0000000000000000 Si
   0.4252873563218342  0.5172413793103461  0.0000000000000000 Si
   0.4367816091953962  0.2068965517241397  0.0000000000000000 Si
   0.1379310344827527  0.2758620689655187  0.0000000000000000 Si
   0.4482758620689573  0.8965517241379328  0.0000000000000000 Si
   0.5977011494252800  0.8620689655172433  0.0000000000000000 Si
   0.7471264367816008  0.8275862068965538  0.0000000000000000 Si
   0.8965517241379235  0.7931034482758639  0.0000000000000000 Si
   0.0459770114942444  0.7586206896551744  0.0000000000000000 Si
   0.1954022988505670  0.7241379310344849  0.0000000000000000 Si
   0.3448275862068879  0.6896551724137949  0.0000000000000000 Si
   0.4942528735632106  0.6551724137931054  0.0000000000000000 Si
   0.2873563218390736  0.2413793103448292  0.0000000000000000 Si
   0.6436781609195315  0.6206896551724159  0.0000000000000000 Si
   0.9425287356321768  0.5517241379310365  0.0000000000000000 Si
   0.0919540229884994  0.5172413793103465  0.0000000000000000 Si
   0.2413793103448203  0.4827586206896570  0.0000000000000000 Si
   0.3908045977011430  0.4482758620689675  0.0000000000000000 Si
   0.5402298850574638  0.4137931034482776  0.0000000000000000 Si
   0.6896551724137865  0.3793103448275881  0.0000000000000000 Si
   0.8390804597701091  0.3448275862068981  0.0000000000000000 Si
   0.9885057471264300  0.3103448275862086  0.0000000000000000 Si
   0.7931034482758559  0.5862068965517260  0.0000000000000000 Si
   0.2988505747126347  0.9310344827586228  0.0000000000000000 Si
   0.5747126436781560  0.4827586206896564  0.0000000000000000 Si
   0.8735632183908004  0.4137931034482769  0.0000000000000000 Si
   0.3103448275862051  0.6206896551724143  0.0000000000000000 Si
   0.4597701149425273  0.5862068965517245  0.0000000000000000 Si
   0.6091954022988491  0.5517241379310349  0.0000000000000000 Si
   0.7586206896551708  0.5172413793103452  0.0000000000000000 Si
   0.9080459770114930  0.4827586206896555  0.0000000000000000 Si
   0.0574712643678150  0.4482758620689658  0.0000000000000000 Si
   0.2068965517241368  0.4137931034482762  0.0000000000000000 Si
   0.3563218390804586  0.3793103448275865  0.0000000000000000 Si
   0.1609195402298829  0.6551724137931040  0.0000000000000000 Si
   0.5057471264367805  0.3448275862068968  0.0000000000000000 Si
   0.8045977011494245  0.2758620689655175  0.0000000000000000 Si
   0.9540229885057465  0.2413793103448278  0.0000000000000000 Si
   0.1034482758620684  0.2068965517241381  0.0000000000000000 Si
   0.2528735632183903  0.1724137931034484  0.0000000000000000 Si
   0.4022988505747123  0.1379310344827587  0.0000000000000000 Si
   0.5517241379310343  0.1034482758620690  0.0000000000000000 Si
   0.7011494252873561  0.0689655172413794  0.0000000000000000 Si
   0.8505747126436780  0.0344827586206897  0.0000000000000000 Si
   0.6551724137931025  0.3103448275862071  0.0000000000000000 Si
   0.7241379310344787  0.4482758620689664  0.0000000000000000 Si
   0.0114942528735611  0.6896551724137936  0.0000000000000000 Si
   0.7126436781609171  0.7586206896551730  0.0000000000000000 Si
   0.0229885057471222  0.3793103448275872  0.0000000000000000 Si
   0.1724137931034440  0.3448275862068975  0.0000000000000000 Si
   0.3218390804597657  0.3103448275862080  0.0000000000000000 Si
   0.4712643678160884  0.2758620689655182  0.0000000000000000 Si
   0.6206896551724101  0.2413793103448285  0.0000000000000000 Si
   0.7701149425287319  0.2068965517241388  0.0000000000000000 Si
   0.9195402298850546  0.1724137931034491  0.0000000000000000 Si
   0.0689655172413763  0.1379310344827593  0.0000000000000000 Si
   0.8620689655172393  0.7241379310344832  0.0000000000000000 Si
   0.2183908045976981  0.1034482758620698  0.0000000000000000 Si
   0.5172413793103416  0.0344827586206904  0.0000000000000000 Si
   0.6666666666666643  0.0000000000000007  0.0000000000000000 Si
   0.8160919540229861  0.9655172413793111  0.0000000000000000 Si
   0.9655172413793078  0.9310344827586214  0.0000000000000000 Si
   0.1149425287356300  0.8965517241379316  0.0000000000000000 Si
   0.2643678160919518  0.8620689655172420  0.0000000000000000 Si
   0.4137931034482736  0.8275862068965524  0.0000000000000000 Si
   0.5632183908045953  0.7931034482758627  0.0000000000000000 Si
   0.3678160919540199  0.0689655172413801  0.0000000000000000 Si
   0.1494252873563120  0.9655172413793127  0.0000000000000000 Si
