Si52
 1.000000
     5.0000000000000000    0.0000000000000000    0.0000000000000000
     0.0000000000000000   56.2916512444000432    0.0000000000000000
     0.0000000000000000    0.0000000000000000   16.0000000000000000
Si
52
Direct
   0.0000000000000000  0.0000000000000000  0.0000000000000000 Si
   0.9999999999999938  0.0769230769230778  0.0000000000000000 Si
   0.7499999999999947  0.1153846153846161  0.0000000000000000 Si
   0.4999999999999938  0.1538461538461546  0.0000000000000000 Si
   0.2499999999999947  0.1923076923076932  0.0000000000000000 Si
   0.9999999999999947  0.2307692307692317  0.0000000000000000 Si
   0.7499999999999929  0.2692307692307703  0.0000000000000000 Si
   0.4999999999999947  0.3076923076923086  0.0000000000000000 Si
   0.2499999999999929  0.3461538461538471  0.0000000000000000 Si
   0.9999999999999947  0.3846153846153855  0.0000000000000000 Si
   0.7499999999999929  0.4230769230769240  0.0000000000000000 Si
   0.2499999999999947  0.0384615384615392  0.0000000000000000 Si
   0.4999999999999929  0.4615384615384626  0.0000000000000000 Si
   0.9999999999999929  0.5384615384615397  0.0000000000000000 Si
   0.7499999999999911  0.5769230769230782  0.0000000000000000 Si
   0.4999999999999929  0.6153846153846165  0.0000000000000000 Si
   0.2499999999999911  0.6538461538461551  0.0000000000000000 Si
   0.9999999999999911  0.6923076923076936  0.0000000000000000 Si
   0.7499999999999911  0.7307692307692319  0.0000000000000000 Si
   0.4999999999999911  0.7692307692307705  0.0000000000000000 Si
   0.2499999999999911  0.8076923076923088  0.0000000000000000 Si
   0.9999999999999911  0.8461538461538476  0.0000000000000000 Si
   0.7499999999999911  0.8846153846153861  0.0000000000000000 Si
   0.2499999999999929  0.5000000000000009  0.0000000000000000 Si
   0.4999999999999956  0.0000000000000007  0.0000000000000000 Si
   0.7499999999999956  0.9615384615384622  0.0000000000000000 Si
   0.9999999999999956  0.9230769230769238  0.0000000000000000 Si
   0.7499999999999998  0.0384615384615385  0.0000000000000000 Si
   0.4999999999999997  0.0769230769230770  0.0000000000000000 Si
   0.2499999999999994  0.1153846153846155  0.0000000000000000 Si
   0.9999999999999993  0.1538461538461540  0.0000000000000000 Si
   0.7499999999999991  0.1923076923076925  0.0000000000000000 Si
   0.4999999999999989  0.2307692307692309  0.0000000000000000 Si
   0.2499999999999984  0.2692307692307694  0.0000000000000000 Si
   0.9999999999999987  0.3076923076923079  0.0000000000000000 Si
   0.7499999999999987  0.3461538461538464  0.0000000000000000 Si
   0.4999999999999982  0.3846153846153849  0.0000000000000000 Si
   0.2499999999999978  0.4230769230769234  0.0000000000000000 Si
   0.9999999999999978  0.4615384615384619  0.0000000000000000 Si
   0.7499999999999978  0.5000000000000003  0.0000000000000000 Si
   0.4999999999999969  0.5384615384615389  0.0000000000000000 Si
   0.2499999999999969  0.5769230769230773  0.0000000000000000 Si
   0.9999999999999973  0.6153846153846159  0.0000000000000000 Si
   0.7499999999999973  0.6538461538461543  0.0000000000000000 Si
   0.4999999999999973  0.6923076923076927  0.0000000000000000 Si
   0.2499999999999964  0.7307692307692313  0.0000000000000000 Si
   0.9999999999999964  0.7692307692307698  0.0000000000000000 Si
   0.7499999999999964  0.8076923076923083  0.0000000000000000 Si
   0.4999999999999956  0.8461538461538468  0.0000000000000000 Si
   0.2499999999999956  0.8846153846153852  0.0000000000000000 Si
   0.4999999999999911  0.9230769230769245  0.0000000000000000 Si
   0.2499999999999911  0.9615384615384630  0.0000000000000000 Si
