Si99
 1.000000
     3.7500000000000000   19.4855715845999953    0.0000000000000000
   -27.5000000000000000    0.0000000000000568    0.0000000000000000
     0.0000000000000000    0.0000000000000000   16.0000000000000000
Si
99
Direct
   0.0000000000000000  0.0000000000000000  0.0000000000000000 Si
   0.8888888888888973  0.3030303030303072  0.0000000000000000 Si
   0.7777777777777866  0.2424242424242466  0.0000000000000000 Si
   0.6666666666666750  0.1818181818181861  0.0000000000000000 Si
   0.5555555555555642  0.1212121212121255  0.0000000000000000 Si
   0.4444444444444517  0.0606060606060641  0.0000000000000000 Si
   0.3333333333333410  0.0000000000000044  0.0000000000000000 Si
   0.2222222222222294  0.9393939393939430  0.0000000000000000 Si
   0.1111111111111187  0.8787878787878824  0.0000000000000000 Si
   0.0000000000000080  0.8181818181818223  0.0000000000000000 Si
   0.8888888888888964  0.7575757575757613  0.0000000000000000 Si
   0.7777777777777857  0.6969696969697008  0.0000000000000000 Si
   0.6666666666666732  0.6363636363636398  0.0000000000000000 Si
   0.5555555555555625  0.5757575757575792  0.0000000000000000 Si
   0.4444444444444509  0.5151515151515182  0.0000000000000000 Si
   0.3333333333333401  0.4545454545454577  0.0000000000000000 Si
   0.2222222222222294  0.3939393939393976  0.0000000000000000 Si
   0.1111111111111169  0.3333333333333366  0.0000000000000000 Si
   0.0000000000000062  0.2727272727272760  0.0000000000000000 Si
   0.8888888888888946  0.2121212121212150  0.0000000000000000 Si
   0.7777777777777839  0.1515151515151545  0.0000000000000000 Si
   0.6666666666666732  0.0909090909090944  0.0000000000000000 Si
   0.0000000000000071  0.3636363636363678  0.0000000000000000 Si
   0.5555555555555616  0.0303030303030334  0.0000000000000000 Si
   0.1111111111111196  0.4242424242424283  0.0000000000000000 Si
   0.3333333333333428  0.5454545454545503  0.0000000000000000 Si
   0.6666666666666767  0.8181818181818237  0.0000000000000000 Si
   0.5555555555555660  0.7575757575757631  0.0000000000000000 Si
   0.4444444444444553  0.6969696969697026  0.0000000000000000 Si
   0.3333333333333446  0.6363636363636420  0.0000000000000000 Si
   0.2222222222222339  0.5757575757575815  0.0000000000000000 Si
   0.1111111111111214  0.5151515151515200  0.0000000000000000 Si
   0.0000000000000107  0.4545454545454595  0.0000000000000000 Si
   0.8888888888888999  0.3939393939393998  0.0000000000000000 Si
   0.7777777777777874  0.3333333333333384  0.0000000000000000 Si
   0.6666666666666767  0.2727272727272778  0.0000000000000000 Si
   0.5555555555555660  0.2121212121212173  0.0000000000000000 Si
   0.4444444444444553  0.1515151515151567  0.0000000000000000 Si
   0.3333333333333428  0.0909090909090953  0.0000000000000000 Si
   0.2222222222222321  0.0303030303030356  0.0000000000000000 Si
   0.1111111111111214  0.9696969696969751  0.0000000000000000 Si
   0.0000000000000089  0.9090909090909136  0.0000000000000000 Si
   0.8888888888888982  0.8484848484848531  0.0000000000000000 Si
   0.7777777777777874  0.7878787878787925  0.0000000000000000 Si
   0.6666666666666767  0.7272727272727320  0.0000000000000000 Si
   0.5555555555555642  0.6666666666666705  0.0000000000000000 Si
   0.4444444444444535  0.6060606060606109  0.0000000000000000 Si
   0.2222222222222303  0.4848484848484889  0.0000000000000000 Si
   0.7777777777777892  0.8787878787878842  0.0000000000000000 Si
   0.4444444444444500  0.9696969696969724  0.0000000000000000 Si
   0.2222222222222276  0.8484848484848513  0.0000000000000000 Si
   0.3333333333333357  0.2727272727272738  0.0000000000000000 Si
   0.2222222222222245  0.2121212121212133  0.0000000000000000 Si
   0.1111111111111134  0.1515151515151527  0.0000000000000000 Si
   0.0000000000000018  0.0909090909090919  0.0000000000000000 Si
   0.8888888888888911  0.0303030303030314  0.0000000000000000 Si
   0.7777777777777797  0.9696969696969706  0.0000000000000000 Si
   0.6666666666666683  0.9090909090909099  0.0000000000000000 Si
   0.5555555555555574  0.8484848484848494  0.0000000000000000 Si
   0.4444444444444460  0.7878787878787886  0.0000000000000000 Si
   0.3333333333333346  0.7272727272727280  0.0000000000000000 Si
   0.2222222222222234  0.6666666666666673  0.0000000000000000 Si
   0.1111111111111123  0.6060606060606066  0.0000000000000000 Si
   0.0000000000000009  0.5454545454545460  0.0000000000000000 Si
   0.8888888888888898  0.4848484848484853  0.0000000000000000 Si
   0.7777777777777787  0.4242424242424247  0.0000000000000000 Si
   0.6666666666666673  0.3636363636363640  0.0000000000000000 Si
   0.5555555555555561  0.3030303030303033  0.0000000000000000 Si
   0.4444444444444449  0.2424242424242427  0.0000000000000000 Si
   0.3333333333333336  0.1818181818181820  0.0000000000000000 Si
   0.2222222222222225  0.1212121212121213  0.0000000000000000 Si
   0.1111111111111112  0.0606060606060607  0.0000000000000000 Si
   0.4444444444444469  0.3333333333333346  0.0000000000000000 Si
   0.3333333333333384  0.9090909090909118  0.0000000000000000 Si
   0.5555555555555585  0.3939393939393954  0.0000000000000000 Si
   0.7777777777777808  0.5151515151515167  0.0000000000000000 Si
   0.1111111111111169  0.7878787878787907  0.0000000000000000 Si
   0.0000000000000053  0.7272727272727297  0.0000000000000000 Si
   0.8888888888888937  0.6666666666666692  0.0000000000000000 Si
   0.7777777777777830  0.6060606060606086  0.0000000000000000 Si
   0.6666666666666714  0.5454545454545476  0.0000000000000000 Si
   0.5555555555555607  0.4848484848484875  0.0000000000000000 Si
   0.4444444444444491  0.4242424242424265  0.0000000000000000 Si
   0.3333333333333384  0.3636363636363660  0.0000000000000000 Si
   0.2222222222222268  0.3030303030303054  0.0000000000000000 Si
   0.1111111111111152  0.2424242424242444  0.0000000000000000 Si
   0.0000000000000036  0.1818181818181839  0.0000000000000000 Si
   0.8888888888888933  0.1212121212121233  0.0000000000000000 Si
   0.7777777777777821  0.0606060606060628  0.0000000000000000 Si
   0.6666666666666705  0.0000000000000022  0.0000000000000000 Si
   0.5555555555555594  0.9393939393939412  0.0000000000000000 Si
   0.4444444444444482  0.8787878787878807  0.0000000000000000 Si
   0.3333333333333366  0.8181818181818199  0.0000000000000000 Si
   0.2222222222222254  0.7575757575757591  0.0000000000000000 Si
   0.1111111111111147  0.6969696969696988  0.0000000000000000 Si
   0.0000000000000031  0.6363636363636380  0.0000000000000000 Si
   0.8888888888888919  0.5757575757575772  0.0000000000000000 Si
   0.6666666666666692  0.4545454545454559  0.0000000000000000 Si
   0.8888888888888999  0.9393939393939448  0.0000000000000000 Si
