Si98
 1.000000
    -0.0000000000000000   -4.3301270187999998   -0.0000000000000000
  -122.5000000000000000   -0.0000000000000000   -0.0000000000000000
    -0.0000000000000000   -0.0000000000000000  -16.0000000000000000
Si
98
Direct
   0.0000000000000000  0.0000000000000000  0.0000000000000000 Si
   0.0000000000000000  0.2857142857142858  0.0000000000000000 Si
   0.5000000000000000  0.2959183673469389  0.0000000000000000 Si
   0.0000000000000071  0.3061224489795918  0.0000000000000000 Si
   0.5000000000000071  0.3163265306122449  0.0000000000000000 Si
   0.0000000000000000  0.3265306122448980  0.0000000000000000 Si
   0.5000000000000000  0.3367346938775511  0.0000000000000000 Si
   0.0000000000000000  0.3469387755102041  0.0000000000000000 Si
   0.5000000000000000  0.3571428571428572  0.0000000000000000 Si
   0.0000000000000000  0.3673469387755103  0.0000000000000000 Si
   0.5000000000000000  0.2755102040816327  0.0000000000000000 Si
   0.5000000000000000  0.3775510204081634  0.0000000000000000 Si
   0.5000000000000036  0.3979591836734694  0.0000000000000000 Si
   0.0000000000000036  0.4081632653061225  0.0000000000000000 Si
   0.5000000000000036  0.4183673469387755  0.0000000000000000 Si
   0.0000000000000036  0.4285714285714286  0.0000000000000000 Si
   0.5000000000000036  0.4387755102040817  0.0000000000000000 Si
   0.0000000000000000  0.4489795918367347  0.0000000000000000 Si
   0.5000000000000000  0.4591836734693878  0.0000000000000000 Si
   0.0000000000000000  0.4693877551020409  0.0000000000000000 Si
   0.5000000000000000  0.4795918367346940  0.0000000000000000 Si
   0.0000000000000000  0.3877551020408164  0.0000000000000000 Si
   0.0000000000000000  0.2653061224489797  0.0000000000000000 Si
   0.5000000000000000  0.2551020408163266  0.0000000000000000 Si
   0.0000000000000000  0.2448979591836735  0.0000000000000000 Si
   0.5000000000000071  0.0306122448979592  0.0000000000000000 Si
   0.0000000000000071  0.0408163265306123  0.0000000000000000 Si
   0.5000000000000071  0.0510204081632654  0.0000000000000000 Si
   0.0000000000000000  0.0612244897959184  0.0000000000000000 Si
   0.5000000000000000  0.0714285714285715  0.0000000000000000 Si
   0.0000000000000000  0.0816326530612246  0.0000000000000000 Si
   0.5000000000000000  0.0918367346938777  0.0000000000000000 Si
   0.0000000000000000  0.1020408163265307  0.0000000000000000 Si
   0.5000000000000000  0.1122448979591838  0.0000000000000000 Si
   0.0000000000000071  0.1224489795918368  0.0000000000000000 Si
   0.5000000000000071  0.1326530612244898  0.0000000000000000 Si
   0.0000000000000071  0.1428571428571429  0.0000000000000000 Si
   0.5000000000000000  0.1530612244897960  0.0000000000000000 Si
   0.0000000000000000  0.1632653061224490  0.0000000000000000 Si
   0.5000000000000000  0.1734693877551021  0.0000000000000000 Si
   0.0000000000000000  0.1836734693877552  0.0000000000000000 Si
   0.5000000000000000  0.1938775510204083  0.0000000000000000 Si
   0.0000000000000000  0.2040816326530613  0.0000000000000000 Si
   0.5000000000000071  0.2142857142857143  0.0000000000000000 Si
   0.0000000000000071  0.2244897959183674  0.0000000000000000 Si
   0.5000000000000000  0.2346938775510204  0.0000000000000000 Si
   0.0000000000000036  0.4897959183673469  0.0000000000000000 Si
   0.5000000000000000  0.5000000000000000  0.0000000000000000 Si
   0.0000000000000036  0.5102040816326531  0.0000000000000000 Si
   0.5000000000000036  0.5204081632653061  0.0000000000000000 Si
   0.5000000000000018  0.7857142857142857  0.0000000000000000 Si
   0.0000000000000000  0.7959183673469388  0.0000000000000000 Si
   0.5000000000000018  0.8061224489795918  0.0000000000000000 Si
   0.0000000000000000  0.8163265306122449  0.0000000000000000 Si
   0.5000000000000018  0.8265306122448980  0.0000000000000000 Si
   0.0000000000000000  0.8367346938775511  0.0000000000000000 Si
   0.5000000000000000  0.8469387755102041  0.0000000000000000 Si
   0.0000000000000009  0.8571428571428572  0.0000000000000000 Si
   0.5000000000000000  0.8673469387755102  0.0000000000000000 Si
   0.0000000000000009  0.8775510204081632  0.0000000000000000 Si
   0.5000000000000000  0.8877551020408163  0.0000000000000000 Si
   0.0000000000000000  0.8979591836734694  0.0000000000000000 Si
   0.5000000000000000  0.9081632653061225  0.0000000000000000 Si
   0.0000000000000000  0.9183673469387755  0.0000000000000000 Si
   0.5000000000000004  0.9285714285714286  0.0000000000000000 Si
   0.0000000000000004  0.9387755102040817  0.0000000000000000 Si
   0.5000000000000000  0.9489795918367347  0.0000000000000000 Si
   0.0000000000000000  0.9591836734693877  0.0000000000000000 Si
   0.5000000000000002  0.9693877551020408  0.0000000000000000 Si
   0.0000000000000000  0.9795918367346939  0.0000000000000000 Si
   0.5000000000000000  0.9897959183673469  0.0000000000000000 Si
   0.0000000000000000  0.7755102040816326  0.0000000000000000 Si
   0.0000000000000071  0.0204081632653061  0.0000000000000000 Si
   0.5000000000000000  0.7653061224489797  0.0000000000000000 Si
   0.5000000000000018  0.7448979591836735  0.0000000000000000 Si
   0.0000000000000000  0.5306122448979592  0.0000000000000000 Si
   0.5000000000000000  0.5408163265306123  0.0000000000000000 Si
   0.0000000000000000  0.5510204081632654  0.0000000000000000 Si
   0.5000000000000036  0.5612244897959184  0.0000000000000000 Si
   0.0000000000000036  0.5714285714285714  0.0000000000000000 Si
   0.5000000000000000  0.5816326530612246  0.0000000000000000 Si
   0.0000000000000000  0.5918367346938775  0.0000000000000000 Si
   0.5000000000000000  0.6020408163265307  0.0000000000000000 Si
   0.0000000000000036  0.6122448979591837  0.0000000000000000 Si
   0.5000000000000000  0.6224489795918368  0.0000000000000000 Si
   0.0000000000000000  0.6326530612244898  0.0000000000000000 Si
   0.5000000000000000  0.6428571428571429  0.0000000000000000 Si
   0.0000000000000036  0.6530612244897960  0.0000000000000000 Si
   0.5000000000000000  0.6632653061224489  0.0000000000000000 Si
   0.0000000000000000  0.6734693877551021  0.0000000000000000 Si
   0.5000000000000000  0.6836734693877551  0.0000000000000000 Si
   0.0000000000000000  0.6938775510204083  0.0000000000000000 Si
   0.5000000000000018  0.7040816326530612  0.0000000000000000 Si
   0.0000000000000018  0.7142857142857143  0.0000000000000000 Si
   0.5000000000000000  0.7244897959183674  0.0000000000000000 Si
   0.0000000000000000  0.7346938775510204  0.0000000000000000 Si
   0.0000000000000018  0.7551020408163265  0.0000000000000000 Si
   0.5000000000000000  0.0102040816326532  0.0000000000000000 Si
