Si55
 1.000000
     1.2500000000000000   10.8253175469999974    0.0000000000000000
   -27.5000000000000000    0.0000000000000568    0.0000000000000000
     0.0000000000000000    0.0000000000000000   16.0000000000000000
Si
55
Direct
   0.0000000000000000  0.0000000000000000  0.0000000000000000 Si
   0.8000000000000052  0.5818181818181831  0.0000000000000000 Si
   0.0000000000000053  0.6363636363636378  0.0000000000000000 Si
   0.2000000000000055  0.6909090909090922  0.0000000000000000 Si
   0.4000000000000057  0.7454545454545469  0.0000000000000000 Si
   0.6000000000000059  0.8000000000000016  0.0000000000000000 Si
   0.8000000000000060  0.8545454545454561  0.0000000000000000 Si
   0.0000000000000071  0.9090909090909107  0.0000000000000000 Si
   0.2000000000000073  0.9636363636363654  0.0000000000000000 Si
   0.4000000000000075  0.0181818181818199  0.0000000000000000 Si
   0.6000000000000076  0.0727272727272745  0.0000000000000000 Si
   0.8000000000000078  0.1272727272727292  0.0000000000000000 Si
   0.6000000000000050  0.5272727272727284  0.0000000000000000 Si
   0.0000000000000071  0.1818181818181839  0.0000000000000000 Si
   0.4000000000000075  0.2909090909090928  0.0000000000000000 Si
   0.6000000000000068  0.3454545454545475  0.0000000000000000 Si
   0.8000000000000078  0.4000000000000021  0.0000000000000000 Si
   0.0000000000000089  0.4545454545454564  0.0000000000000000 Si
   0.2000000000000082  0.5090909090909110  0.0000000000000000 Si
   0.4000000000000092  0.5636363636363657  0.0000000000000000 Si
   0.6000000000000085  0.6181818181818204  0.0000000000000000 Si
   0.8000000000000096  0.6727272727272751  0.0000000000000000 Si
   0.0000000000000089  0.7272727272727297  0.0000000000000000 Si
   0.2000000000000099  0.7818181818181844  0.0000000000000000 Si
   0.4000000000000092  0.8363636363636386  0.0000000000000000 Si
   0.2000000000000064  0.2363636363636381  0.0000000000000000 Si
   0.6000000000000103  0.8909090909090933  0.0000000000000000 Si
   0.4000000000000048  0.4727272727272740  0.0000000000000000 Si
   0.0000000000000044  0.3636363636363649  0.0000000000000000 Si
   0.2000000000000002  0.0545454545454546  0.0000000000000000 Si
   0.4000000000000004  0.1090909090909092  0.0000000000000000 Si
   0.6000000000000005  0.1636363636363638  0.0000000000000000 Si
   0.8000000000000007  0.2181818181818184  0.0000000000000000 Si
   0.0000000000000009  0.2727272727272730  0.0000000000000000 Si
   0.2000000000000011  0.3272727272727275  0.0000000000000000 Si
   0.4000000000000012  0.3818181818181821  0.0000000000000000 Si
   0.6000000000000014  0.4363636363636367  0.0000000000000000 Si
   0.8000000000000018  0.4909090909090914  0.0000000000000000 Si
   0.0000000000000018  0.5454545454545460  0.0000000000000000 Si
   0.2000000000000020  0.6000000000000005  0.0000000000000000 Si
   0.2000000000000046  0.4181818181818193  0.0000000000000000 Si
   0.4000000000000021  0.6545454545454551  0.0000000000000000 Si
   0.8000000000000025  0.7636363636363642  0.0000000000000000 Si
   0.0000000000000027  0.8181818181818189  0.0000000000000000 Si
   0.2000000000000028  0.8727272727272735  0.0000000000000000 Si
   0.4000000000000030  0.9272727272727280  0.0000000000000000 Si
   0.6000000000000036  0.9818181818181827  0.0000000000000000 Si
   0.8000000000000038  0.0363636363636373  0.0000000000000000 Si
   0.0000000000000036  0.0909090909090919  0.0000000000000000 Si
   0.2000000000000037  0.1454545454545464  0.0000000000000000 Si
   0.4000000000000039  0.2000000000000011  0.0000000000000000 Si
   0.6000000000000041  0.2545454545454555  0.0000000000000000 Si
   0.8000000000000043  0.3090909090909102  0.0000000000000000 Si
   0.6000000000000023  0.7090909090909097  0.0000000000000000 Si
   0.8000000000000096  0.9454545454545480  0.0000000000000000 Si
