Si70
 1.000000
     3.7500000000000000  -10.8253175469999992   -0.0000000000000000
   -31.2500000000000000  -10.8253175469999974   -0.0000000000000000
    -0.0000000000000000   -0.0000000000000000  -16.0000000000000000
Si
70
Direct
   0.0000000000000000  0.0000000000000000  0.0000000000000000 Si
   0.9285714285714288  0.4714285714285714  0.0000000000000000 Si
   0.1428571428571423  0.4571428571428572  0.0000000000000000 Si
   0.3571428571428577  0.4428571428571428  0.0000000000000000 Si
   0.5714285714285712  0.4285714285714286  0.0000000000000000 Si
   0.7857142857142865  0.4142857142857143  0.0000000000000000 Si
   0.0000000000000000  0.4000000000000000  0.0000000000000000 Si
   0.2142857142857135  0.3857142857142858  0.0000000000000000 Si
   0.4285714285714288  0.3714285714285714  0.0000000000000000 Si
   0.6428571428571423  0.3571428571428572  0.0000000000000000 Si
   0.8571428571428577  0.3428571428571429  0.0000000000000000 Si
   0.0714285714285712  0.3285714285714286  0.0000000000000000 Si
   0.2857142857142865  0.3142857142857143  0.0000000000000000 Si
   0.5000000000000000  0.3000000000000000  0.0000000000000000 Si
   0.7142857142857153  0.2857142857142857  0.0000000000000000 Si
   0.9285714285714288  0.2714285714285715  0.0000000000000000 Si
   0.1428571428571423  0.2571428571428571  0.0000000000000000 Si
   0.3571428571428577  0.2428571428571429  0.0000000000000000 Si
   0.3571428571428559  0.0428571428571429  0.0000000000000000 Si
   0.1428571428571423  0.0571428571428572  0.0000000000000000 Si
   0.9285714285714270  0.0714285714285715  0.0000000000000000 Si
   0.7142857142857135  0.0857142857142857  0.0000000000000000 Si
   0.5000000000000000  0.1000000000000000  0.0000000000000000 Si
   0.2857142857142847  0.1142857142857143  0.0000000000000000 Si
   0.7142857142857135  0.4857142857142858  0.0000000000000000 Si
   0.0714285714285712  0.1285714285714286  0.0000000000000000 Si
   0.6428571428571423  0.1571428571428571  0.0000000000000000 Si
   0.4285714285714270  0.1714285714285715  0.0000000000000000 Si
   0.2142857142857135  0.1857142857142857  0.0000000000000000 Si
   0.9999999999999982  0.2000000000000001  0.0000000000000000 Si
   0.7857142857142847  0.2142857142857143  0.0000000000000000 Si
   0.5714285714285694  0.2285714285714286  0.0000000000000000 Si
   0.8571428571428559  0.1428571428571429  0.0000000000000000 Si
   0.5000000000000000  0.5000000000000000  0.0000000000000000 Si
   0.2857142857142856  0.5142857142857142  0.0000000000000000 Si
   0.0714285714285712  0.5285714285714286  0.0000000000000000 Si
   0.9999999999999996  0.8000000000000000  0.0000000000000000 Si
   0.7857142857142856  0.8142857142857143  0.0000000000000000 Si
   0.5714285714285716  0.8285714285714285  0.0000000000000000 Si
   0.3571428571428572  0.8428571428571429  0.0000000000000000 Si
   0.1428571428571428  0.8571428571428572  0.0000000000000000 Si
   0.9285714285714284  0.8714285714285714  0.0000000000000000 Si
   0.2142857142857140  0.7857142857142857  0.0000000000000000 Si
   0.7142857142857142  0.8857142857142857  0.0000000000000000 Si
   0.2857142857142858  0.9142857142857143  0.0000000000000000 Si
   0.0714285714285714  0.9285714285714286  0.0000000000000000 Si
   0.8571428571428571  0.9428571428571428  0.0000000000000000 Si
   0.6428571428571429  0.9571428571428572  0.0000000000000000 Si
   0.4285714285714285  0.9714285714285714  0.0000000000000000 Si
   0.2142857142857143  0.9857142857142858  0.0000000000000000 Si
   0.4999999999999998  0.9000000000000000  0.0000000000000000 Si
   0.5714285714285712  0.0285714285714286  0.0000000000000000 Si
   0.4285714285714284  0.7714285714285715  0.0000000000000000 Si
   0.8571428571428568  0.7428571428571429  0.0000000000000000 Si
   0.8571428571428568  0.5428571428571429  0.0000000000000000 Si
   0.6428571428571423  0.5571428571428572  0.0000000000000000 Si
   0.4285714285714279  0.5714285714285714  0.0000000000000000 Si
   0.2142857142857135  0.5857142857142857  0.0000000000000000 Si
   0.9999999999999991  0.6000000000000001  0.0000000000000000 Si
   0.7857142857142847  0.6142857142857143  0.0000000000000000 Si
   0.6428571428571428  0.7571428571428571  0.0000000000000000 Si
   0.5714285714285712  0.6285714285714286  0.0000000000000000 Si
   0.1428571428571432  0.6571428571428571  0.0000000000000000 Si
   0.9285714285714288  0.6714285714285715  0.0000000000000000 Si
   0.7142857142857144  0.6857142857142857  0.0000000000000000 Si
   0.5000000000000000  0.7000000000000000  0.0000000000000000 Si
   0.2857142857142856  0.7142857142857143  0.0000000000000000 Si
   0.0714285714285712  0.7285714285714286  0.0000000000000000 Si
   0.3571428571428577  0.6428571428571428  0.0000000000000000 Si
   0.7857142857142847  0.0142857142857143  0.0000000000000000 Si
