Si62
 1.000000
    12.5000000000000000   12.9903810564000253    0.0000000000000000
   -17.5000000000000000    8.6602540375999979    0.0000000000000000
     0.0000000000000000    0.0000000000000000   16.0000000000000000
Si
62
Direct
   0.0000000000000000  0.0000000000000000  0.0000000000000000 Si
   0.6612903225806450  0.2580645161290320  0.0000000000000000 Si
   0.7419354838709675  0.3870967741935480  0.0000000000000000 Si
   0.8225806451612900  0.5161290322580641  0.0000000000000000 Si
   0.9032258064516125  0.6451612903225801  0.0000000000000000 Si
   0.9838709677419355  0.7741935483870970  0.0000000000000000 Si
   0.0645161290322580  0.9032258064516130  0.0000000000000000 Si
   0.1451612903225805  0.0322580645161290  0.0000000000000000 Si
   0.2258064516129030  0.1612903225806450  0.0000000000000000 Si
   0.3064516129032255  0.2903225806451610  0.0000000000000000 Si
   0.3870967741935480  0.4193548387096770  0.0000000000000000 Si
   0.4677419354838706  0.5483870967741931  0.0000000000000000 Si
   0.5483870967741939  0.6774193548387100  0.0000000000000000 Si
   0.6290322580645160  0.8064516129032260  0.0000000000000000 Si
   0.7096774193548390  0.9354838709677420  0.0000000000000000 Si
   0.7903225806451610  0.0645161290322580  0.0000000000000000 Si
   0.8709677419354840  0.1935483870967740  0.0000000000000000 Si
   0.9516129032258061  0.3225806451612900  0.0000000000000000 Si
   0.0322580645161290  0.4516129032258061  0.0000000000000000 Si
   0.1129032258064511  0.5806451612903221  0.0000000000000000 Si
   0.1935483870967740  0.7096774193548381  0.0000000000000000 Si
   0.2741935483870970  0.8387096774193550  0.0000000000000000 Si
   0.3548387096774190  0.9677419354838710  0.0000000000000000 Si
   0.4354838709677420  0.0967741935483870  0.0000000000000000 Si
   0.5161290322580641  0.2258064516129030  0.0000000000000000 Si
   0.5967741935483870  0.3548387096774190  0.0000000000000000 Si
   0.6774193548387091  0.4838709677419351  0.0000000000000000 Si
   0.7580645161290320  0.6129032258064511  0.0000000000000000 Si
   0.5806451612903225  0.1290322580645160  0.0000000000000000 Si
   0.5000000000000000  0.0000000000000000  0.0000000000000000 Si
   0.4193548387096775  0.8709677419354840  0.0000000000000000 Si
   0.3387096774193545  0.7419354838709675  0.0000000000000000 Si
   0.0806451612903226  0.1290322580645161  0.0000000000000000 Si
   0.1612903225806452  0.2580645161290323  0.0000000000000000 Si
   0.2419354838709677  0.3870967741935484  0.0000000000000000 Si
   0.3225806451612903  0.5161290322580645  0.0000000000000000 Si
   0.4032258064516129  0.6451612903225806  0.0000000000000000 Si
   0.4838709677419355  0.7741935483870968  0.0000000000000000 Si
   0.5645161290322580  0.9032258064516129  0.0000000000000000 Si
   0.6451612903225806  0.0322580645161290  0.0000000000000000 Si
   0.7258064516129031  0.1612903225806450  0.0000000000000000 Si
   0.8064516129032258  0.2903225806451613  0.0000000000000000 Si
   0.8870967741935485  0.4193548387096775  0.0000000000000000 Si
   0.9677419354838710  0.5483870967741935  0.0000000000000000 Si
   0.0483870967741935  0.6774193548387095  0.0000000000000000 Si
   0.8387096774193550  0.7419354838709680  0.0000000000000000 Si
   0.1290322580645160  0.8064516129032258  0.0000000000000000 Si
   0.2903225806451613  0.0645161290322580  0.0000000000000000 Si
   0.3709677419354838  0.1935483870967740  0.0000000000000000 Si
   0.4516129032258063  0.3225806451612900  0.0000000000000000 Si
   0.5322580645161290  0.4516129032258065  0.0000000000000000 Si
   0.6129032258064515  0.5806451612903225  0.0000000000000000 Si
   0.6935483870967740  0.7096774193548385  0.0000000000000000 Si
   0.7741935483870970  0.8387096774193550  0.0000000000000000 Si
   0.8548387096774195  0.9677419354838710  0.0000000000000000 Si
   0.9354838709677420  0.0967741935483870  0.0000000000000000 Si
   0.0161290322580645  0.2258064516129030  0.0000000000000000 Si
   0.0967741935483870  0.3548387096774190  0.0000000000000000 Si
   0.1774193548387095  0.4838709677419355  0.0000000000000000 Si
   0.2580645161290320  0.6129032258064515  0.0000000000000000 Si
   0.2096774193548387  0.9354838709677420  0.0000000000000000 Si
   0.9193548387096779  0.8709677419354840  0.0000000000000000 Si
