Si62
 1.000000
    10.0000000000000000    8.6602540375999979    0.0000000000000000
   -21.2500000000000000   15.1554445658000105    0.0000000000000000
     0.0000000000000000    0.0000000000000000   16.0000000000000000
Si
62
Direct
   0.0000000000000000  0.0000000000000000  0.0000000000000000 Si
   0.6612903225806437  0.1935483870967727  0.0000000000000000 Si
   0.7419354838709662  0.2903225806451597  0.0000000000000000 Si
   0.8225806451612887  0.3870967741935467  0.0000000000000000 Si
   0.9032258064516112  0.4838709677419337  0.0000000000000000 Si
   0.9838709677419342  0.5806451612903212  0.0000000000000000 Si
   0.0645161290322567  0.6774193548387082  0.0000000000000000 Si
   0.1451612903225787  0.7741935483870952  0.0000000000000000 Si
   0.2258064516129012  0.8709677419354822  0.0000000000000000 Si
   0.3064516129032238  0.9677419354838692  0.0000000000000000 Si
   0.3870967741935463  0.0645161290322562  0.0000000000000000 Si
   0.4677419354838688  0.1612903225806432  0.0000000000000000 Si
   0.5483870967741917  0.2580645161290303  0.0000000000000000 Si
   0.6290322580645142  0.3548387096774173  0.0000000000000000 Si
   0.7096774193548367  0.4516129032258043  0.0000000000000000 Si
   0.7903225806451593  0.5483870967741913  0.0000000000000000 Si
   0.8709677419354818  0.6451612903225783  0.0000000000000000 Si
   0.9516129032258043  0.7419354838709653  0.0000000000000000 Si
   0.0322580645161263  0.8387096774193523  0.0000000000000000 Si
   0.1129032258064493  0.9354838709677393  0.0000000000000000 Si
   0.1935483870967714  0.0322580645161263  0.0000000000000000 Si
   0.2741935483870943  0.1290322580645142  0.0000000000000000 Si
   0.3548387096774173  0.2258064516129012  0.0000000000000000 Si
   0.4354838709677393  0.3225806451612883  0.0000000000000000 Si
   0.5161290322580623  0.4193548387096753  0.0000000000000000 Si
   0.5967741935483843  0.5161290322580614  0.0000000000000000 Si
   0.6774193548387073  0.6129032258064484  0.0000000000000000 Si
   0.7580645161290294  0.7096774193548354  0.0000000000000000 Si
   0.5806451612903212  0.0967741935483857  0.0000000000000000 Si
   0.4999999999999987  0.9999999999999987  0.0000000000000000 Si
   0.4193548387096762  0.9032258064516117  0.0000000000000000 Si
   0.3387096774193536  0.8064516129032242  0.0000000000000000 Si
   0.0806451612903225  0.0967741935483871  0.0000000000000000 Si
   0.1612903225806451  0.1935483870967741  0.0000000000000000 Si
   0.2419354838709676  0.2903225806451611  0.0000000000000000 Si
   0.3225806451612901  0.3870967741935482  0.0000000000000000 Si
   0.4032258064516127  0.4838709677419353  0.0000000000000000 Si
   0.4838709677419352  0.5806451612903223  0.0000000000000000 Si
   0.5645161290322578  0.6774193548387094  0.0000000000000000 Si
   0.6451612903225803  0.7741935483870964  0.0000000000000000 Si
   0.7258064516129028  0.8709677419354834  0.0000000000000000 Si
   0.8064516129032253  0.9677419354838706  0.0000000000000000 Si
   0.8870967741935479  0.0645161290322576  0.0000000000000000 Si
   0.9677419354838704  0.1612903225806446  0.0000000000000000 Si
   0.0483870967741928  0.2580645161290316  0.0000000000000000 Si
   0.8387096774193523  0.8064516129032233  0.0000000000000000 Si
   0.1290322580645156  0.3548387096774188  0.0000000000000000 Si
   0.2903225806451606  0.5483870967741928  0.0000000000000000 Si
   0.3709677419354831  0.6451612903225799  0.0000000000000000 Si
   0.4516129032258056  0.7419354838709669  0.0000000000000000 Si
   0.5322580645161283  0.8387096774193541  0.0000000000000000 Si
   0.6129032258064506  0.9354838709677411  0.0000000000000000 Si
   0.6935483870967731  0.0322580645161281  0.0000000000000000 Si
   0.7741935483870959  0.1290322580645151  0.0000000000000000 Si
   0.8548387096774184  0.2258064516129021  0.0000000000000000 Si
   0.9354838709677409  0.3225806451612891  0.0000000000000000 Si
   0.0161290322580632  0.4193548387096762  0.0000000000000000 Si
   0.0967741935483857  0.5161290322580632  0.0000000000000000 Si
   0.1774193548387086  0.6129032258064506  0.0000000000000000 Si
   0.2580645161290311  0.7096774193548376  0.0000000000000000 Si
   0.2096774193548381  0.4516129032258058  0.0000000000000000 Si
   0.9193548387096753  0.9032258064516103  0.0000000000000000 Si
