Si48
 1.000000
    13.7500000000000000    6.4951905281999700    0.0000000000000000
   -12.5000000000000000   12.9903810564000111    0.0000000000000000
     0.0000000000000000    0.0000000000000000   16.0000000000000000
Si
48
Direct
   0.0000000000000000  0.0000000000000000  0.0000000000000000 Si
   0.0833333333333328  0.7916666666666652  0.0000000000000000 Si
   0.1249999999999996  0.9374999999999987  0.0000000000000000 Si
   0.1666666666666661  0.0833333333333313  0.0000000000000000 Si
   0.2083333333333328  0.2291666666666652  0.0000000000000000 Si
   0.2499999999999996  0.3749999999999982  0.0000000000000000 Si
   0.2916666666666659  0.5208333333333313  0.0000000000000000 Si
   0.3333333333333326  0.6666666666666643  0.0000000000000000 Si
   0.3749999999999993  0.8124999999999982  0.0000000000000000 Si
   0.4166666666666659  0.9583333333333313  0.0000000000000000 Si
   0.0416666666666661  0.6458333333333313  0.0000000000000000 Si
   0.4583333333333326  0.1041666666666643  0.0000000000000000 Si
   0.5416666666666659  0.3958333333333304  0.0000000000000000 Si
   0.5833333333333326  0.5416666666666643  0.0000000000000000 Si
   0.6249999999999993  0.6874999999999982  0.0000000000000000 Si
   0.6666666666666659  0.8333333333333304  0.0000000000000000 Si
   0.7083333333333326  0.9791666666666643  0.0000000000000000 Si
   0.7499999999999991  0.1249999999999973  0.0000000000000000 Si
   0.7916666666666656  0.2708333333333304  0.0000000000000000 Si
   0.8333333333333324  0.4166666666666643  0.0000000000000000 Si
   0.8749999999999991  0.5624999999999973  0.0000000000000000 Si
   0.4999999999999993  0.2499999999999982  0.0000000000000000 Si
   0.9999999999999996  0.4999999999999987  0.0000000000000000 Si
   0.9583333333333328  0.3541666666666652  0.0000000000000000 Si
   0.9166666666666662  0.2083333333333321  0.0000000000000000 Si
   0.0416666666666666  0.1458333333333333  0.0000000000000000 Si
   0.0833333333333333  0.2916666666666665  0.0000000000000000 Si
   0.1249999999999999  0.4374999999999998  0.0000000000000000 Si
   0.1666666666666666  0.5833333333333330  0.0000000000000000 Si
   0.2083333333333332  0.7291666666666663  0.0000000000000000 Si
   0.2499999999999999  0.8749999999999997  0.0000000000000000 Si
   0.2916666666666665  0.0208333333333328  0.0000000000000000 Si
   0.3333333333333331  0.1666666666666661  0.0000000000000000 Si
   0.3749999999999998  0.3124999999999996  0.0000000000000000 Si
   0.4166666666666665  0.4583333333333326  0.0000000000000000 Si
   0.4583333333333331  0.6041666666666661  0.0000000000000000 Si
   0.4999999999999998  0.7499999999999993  0.0000000000000000 Si
   0.5416666666666664  0.8958333333333326  0.0000000000000000 Si
   0.5833333333333330  0.0416666666666656  0.0000000000000000 Si
   0.6249999999999998  0.1874999999999991  0.0000000000000000 Si
   0.6666666666666663  0.3333333333333321  0.0000000000000000 Si
   0.7083333333333329  0.4791666666666656  0.0000000000000000 Si
   0.7499999999999997  0.6249999999999991  0.0000000000000000 Si
   0.7916666666666663  0.7708333333333321  0.0000000000000000 Si
   0.8333333333333329  0.9166666666666652  0.0000000000000000 Si
   0.8749999999999996  0.0624999999999987  0.0000000000000000 Si
   0.9166666666666656  0.7083333333333304  0.0000000000000000 Si
   0.9583333333333324  0.8541666666666634  0.0000000000000000 Si
