Si94
 1.000000
    20.0000000000000000   -4.3301270187999705    0.0000000000000000
    -2.5000000000000000   25.9807621127999937    0.0000000000000000
     0.0000000000000000    0.0000000000000000   16.0000000000000000
Si
94
Direct
   0.0000000000000000  0.0000000000000000  0.0000000000000000 Si
   0.4361702127659455  0.9893617021276775  0.0000000000000000 Si
   0.4893617021276477  0.9148936170212938  0.0000000000000000 Si
   0.5425531914893504  0.8404255319149101  0.0000000000000000 Si
   0.5957446808510523  0.7659574468085273  0.0000000000000000 Si
   0.6489361702127545  0.6914893617021445  0.0000000000000000 Si
   0.7021276595744572  0.6170212765957608  0.0000000000000000 Si
   0.7553191489361595  0.5425531914893780  0.0000000000000000 Si
   0.8085106382978613  0.4680851063829952  0.0000000000000000 Si
   0.8617021276595640  0.3936170212766115  0.0000000000000000 Si
   0.9148936170212663  0.3191489361702278  0.0000000000000000 Si
   0.9680851063829690  0.2446808510638441  0.0000000000000000 Si
   0.0212765957446708  0.1702127659574613  0.0000000000000000 Si
   0.0744680851063730  0.0957446808510785  0.0000000000000000 Si
   0.1276595744680757  0.0212765957446948  0.0000000000000000 Si
   0.1808510638297780  0.9468085106383120  0.0000000000000000 Si
   0.2340425531914798  0.8723404255319287  0.0000000000000000 Si
   0.2872340425531825  0.7978723404255450  0.0000000000000000 Si
   0.3404255319148848  0.7234042553191622  0.0000000000000000 Si
   0.3936170212765866  0.6489361702127789  0.0000000000000000 Si
   0.3829787234042437  0.0638297872340603  0.0000000000000000 Si
   0.3297872340425410  0.1382978723404440  0.0000000000000000 Si
   0.2765957446808387  0.2127659574468268  0.0000000000000000 Si
   0.2234042553191360  0.2872340425532105  0.0000000000000000 Si
   0.1595744680850899  0.7765957446808756  0.0000000000000000 Si
   0.2127659574467931  0.7021276595744919  0.0000000000000000 Si
   0.2659574468084944  0.6276595744681082  0.0000000000000000 Si
   0.3191489361701967  0.5531914893617254  0.0000000000000000 Si
   0.3723404255318998  0.4787234042553417  0.0000000000000000 Si
   0.4255319148936012  0.4042553191489588  0.0000000000000000 Si
   0.4787234042553035  0.3297872340425760  0.0000000000000000 Si
   0.5319148936170066  0.2553191489361923  0.0000000000000000 Si
   0.5851063829787089  0.1808510638298095  0.0000000000000000 Si
   0.4468085106382893  0.5744680851063952  0.0000000000000000 Si
   0.6382978723404111  0.1063829787234258  0.0000000000000000 Si
   0.7446808510638157  0.9574468085106593  0.0000000000000000 Si
   0.7978723404255179  0.8829787234042756  0.0000000000000000 Si
   0.8510638297872202  0.8085106382978928  0.0000000000000000 Si
   0.9042553191489224  0.7340425531915100  0.0000000000000000 Si
   0.9574468085106247  0.6595744680851263  0.0000000000000000 Si
   0.0106382978723270  0.5851063829787435  0.0000000000000000 Si
   0.0638297872340292  0.5106382978723598  0.0000000000000000 Si
   0.1170212765957319  0.4361702127659761  0.0000000000000000 Si
   0.1702127659574337  0.3617021276595933  0.0000000000000000 Si
   0.6914893617021134  0.0319148936170421  0.0000000000000000 Si
   0.4999999999999916  0.5000000000000124  0.0000000000000000 Si
   0.5531914893616938  0.4255319148936292  0.0000000000000000 Si
   0.6063829787233965  0.3510638297872459  0.0000000000000000 Si
   0.9361702127659539  0.4893617021276648  0.0000000000000000 Si
   0.9893617021276562  0.4148936170212816  0.0000000000000000 Si
   0.0425531914893584  0.3404255319148983  0.0000000000000000 Si
   0.0957446808510609  0.2659574468085151  0.0000000000000000 Si
   0.1489361702127631  0.1914893617021318  0.0000000000000000 Si
   0.2021276595744653  0.1170212765957488  0.0000000000000000 Si
   0.2553191489361677  0.0425531914893653  0.0000000000000000 Si
   0.3085106382978700  0.9680851063829822  0.0000000000000000 Si
   0.3617021276595723  0.8936170212765988  0.0000000000000000 Si
   0.8829787234042517  0.5638297872340481  0.0000000000000000 Si
   0.4148936170212746  0.8191489361702157  0.0000000000000000 Si
   0.5212765957446792  0.6702127659574492  0.0000000000000000 Si
   0.5744680851063815  0.5957446808510659  0.0000000000000000 Si
   0.6276595744680838  0.5212765957446827  0.0000000000000000 Si
   0.6808510638297862  0.4468085106382994  0.0000000000000000 Si
   0.7340425531914885  0.3723404255319162  0.0000000000000000 Si
   0.7872340425531907  0.2978723404255330  0.0000000000000000 Si
   0.8404255319148931  0.2234042553191497  0.0000000000000000 Si
   0.8936170212765954  0.1489361702127665  0.0000000000000000 Si
   0.9468085106382977  0.0744680851063832  0.0000000000000000 Si
   0.4680851063829770  0.7446808510638324  0.0000000000000000 Si
   0.1063829787233876  0.8510638297872584  0.0000000000000000 Si
   0.8297872340425492  0.6382978723404313  0.0000000000000000 Si
   0.7234042553191447  0.7872340425531976  0.0000000000000000 Si
   0.6595744680850983  0.2765957446808627  0.0000000000000000 Si
   0.7127659574468006  0.2021276595744794  0.0000000000000000 Si
   0.7659574468085033  0.1276595744680962  0.0000000000000000 Si
   0.8191489361702056  0.0531914893617129  0.0000000000000000 Si
   0.8723404255319078  0.9787234042553297  0.0000000000000000 Si
   0.9255319148936101  0.9042553191489464  0.0000000000000000 Si
   0.9787234042553123  0.8297872340425632  0.0000000000000000 Si
   0.0319148936170146  0.7553191489361799  0.0000000000000000 Si
   0.0851063829787169  0.6808510638297967  0.0000000000000000 Si
   0.7765957446808469  0.7127659574468146  0.0000000000000000 Si
   0.1382978723404193  0.6063829787234134  0.0000000000000000 Si
   0.2446808510638239  0.4574468085106469  0.0000000000000000 Si
   0.2978723404255261  0.3829787234042636  0.0000000000000000 Si
   0.3510638297872286  0.3085106382978804  0.0000000000000000 Si
   0.4042553191489306  0.2340425531914976  0.0000000000000000 Si
   0.4574468085106331  0.1595744680851139  0.0000000000000000 Si
   0.5106382978723354  0.0851063829787306  0.0000000000000000 Si
   0.5638297872340379  0.0106382978723474  0.0000000000000000 Si
   0.6170212765957399  0.9361702127659643  0.0000000000000000 Si
   0.6702127659574424  0.8617021276595811  0.0000000000000000 Si
   0.1914893617021218  0.5319148936170301  0.0000000000000000 Si
   0.0531914893616854  0.9255319148936412  0.0000000000000000 Si
