Si58
 1.000000
     2.5000000000000000    0.0000000000000000    0.0000000000000000
     0.0000000000000000  125.5736835451999980    0.0000000000000000
     0.0000000000000000    0.0000000000000000   16.0000000000000000
Si
58
Direct
   0.0000000000000000  0.0000000000000000  0.0000000000000000 Si
   0.5000000000000018  0.5344827586206896  0.0000000000000000 Si
   0.0000000000000000  0.5517241379310345  0.0000000000000000 Si
   0.5000000000000000  0.5689655172413793  0.0000000000000000 Si
   0.0000000000000000  0.5862068965517241  0.0000000000000000 Si
   0.5000000000000000  0.6034482758620690  0.0000000000000000 Si
   0.0000000000000000  0.6206896551724138  0.0000000000000000 Si
   0.5000000000000000  0.6379310344827586  0.0000000000000000 Si
   0.0000000000000000  0.6551724137931034  0.0000000000000000 Si
   0.5000000000000000  0.6724137931034483  0.0000000000000000 Si
   0.0000000000000000  0.6896551724137931  0.0000000000000000 Si
   0.5000000000000000  0.7068965517241379  0.0000000000000000 Si
   0.0000000000000000  0.7241379310344828  0.0000000000000000 Si
   0.5000000000000000  0.7413793103448276  0.0000000000000000 Si
   0.0000000000000000  0.7586206896551724  0.0000000000000000 Si
   0.5000000000000000  0.7758620689655172  0.0000000000000000 Si
   0.0000000000000000  0.7931034482758621  0.0000000000000000 Si
   0.5000000000000000  0.8103448275862069  0.0000000000000000 Si
   0.0000000000000000  0.8275862068965517  0.0000000000000000 Si
   0.5000000000000000  0.8448275862068966  0.0000000000000000 Si
   0.0000000000000000  0.8620689655172413  0.0000000000000000 Si
   0.5000000000000000  0.8793103448275862  0.0000000000000000 Si
   0.0000000000000000  0.8965517241379310  0.0000000000000000 Si
   0.5000000000000000  0.9137931034482758  0.0000000000000000 Si
   0.0000000000000000  0.9310344827586207  0.0000000000000000 Si
   0.5000000000000000  0.9482758620689655  0.0000000000000000 Si
   0.9999999999999982  0.5172413793103449  0.0000000000000000 Si
   0.5000000000000000  0.5000000000000000  0.0000000000000000 Si
   0.0000000000000018  0.4827586206896551  0.0000000000000000 Si
   0.5000000000000000  0.4655172413793103  0.0000000000000000 Si
   0.5000000000000000  0.0172413793103448  0.0000000000000000 Si
   0.0000000000000000  0.0344827586206897  0.0000000000000000 Si
   0.5000000000000000  0.0517241379310345  0.0000000000000000 Si
   0.0000000000000000  0.0689655172413793  0.0000000000000000 Si
   0.5000000000000000  0.0862068965517241  0.0000000000000000 Si
   0.0000000000000000  0.1034482758620690  0.0000000000000000 Si
   0.5000000000000004  0.1206896551724138  0.0000000000000000 Si
   0.0000000000000000  0.1379310344827586  0.0000000000000000 Si
   0.5000000000000000  0.1551724137931035  0.0000000000000000 Si
   0.0000000000000000  0.1724137931034483  0.0000000000000000 Si
   0.5000000000000000  0.1896551724137931  0.0000000000000000 Si
   0.0000000000000000  0.2068965517241379  0.0000000000000000 Si
   0.0000000000000036  0.9655172413793103  0.0000000000000000 Si
   0.5000000000000000  0.2241379310344828  0.0000000000000000 Si
   0.4999999999999991  0.2586206896551724  0.0000000000000000 Si
   0.0000000000000000  0.2758620689655172  0.0000000000000000 Si
   0.5000000000000000  0.2931034482758620  0.0000000000000000 Si
   0.0000000000000000  0.3103448275862069  0.0000000000000000 Si
   0.5000000000000000  0.3275862068965517  0.0000000000000000 Si
   0.0000000000000000  0.3448275862068966  0.0000000000000000 Si
   0.5000000000000000  0.3620689655172414  0.0000000000000000 Si
   0.0000000000000000  0.3793103448275862  0.0000000000000000 Si
   0.5000000000000000  0.3965517241379310  0.0000000000000000 Si
   0.0000000000000000  0.4137931034482759  0.0000000000000000 Si
   0.5000000000000000  0.4310344827586207  0.0000000000000000 Si
   0.0000000000000000  0.4482758620689655  0.0000000000000000 Si
   0.0000000000000009  0.2413793103448276  0.0000000000000000 Si
   0.5000000000000000  0.9827586206896551  0.0000000000000000 Si
