Si54
 1.000000
   -10.0000000000000000   -4.3301270187999705   -0.0000000000000000
    -7.5000000000000000   25.9807621127999937   -0.0000000000000000
    -0.0000000000000000   -0.0000000000000000  -16.0000000000000000
Si
54
Direct
   0.0000000000000000  0.0000000000000000  0.0000000000000000 Si
   0.3888888888888902  0.3148148148148175  0.0000000000000000 Si
   0.3333333333333346  0.2222222222222245  0.0000000000000000 Si
   0.2777777777777790  0.1296296296296320  0.0000000000000000 Si
   0.2222222222222237  0.0370370370370399  0.0000000000000000 Si
   0.1666666666666683  0.9444444444444473  0.0000000000000000 Si
   0.1111111111111127  0.8518518518518552  0.0000000000000000 Si
   0.0555555555555569  0.7592592592592622  0.0000000000000000 Si
   0.0000000000000016  0.6666666666666696  0.0000000000000000 Si
   0.9444444444444460  0.5740740740740775  0.0000000000000000 Si
   0.8888888888888906  0.4814814814814845  0.0000000000000000 Si
   0.8333333333333348  0.3888888888888919  0.0000000000000000 Si
   0.7777777777777795  0.2962962962962998  0.0000000000000000 Si
   0.7222222222222241  0.2037037037037073  0.0000000000000000 Si
   0.6666666666666687  0.1111111111111152  0.0000000000000000 Si
   0.6111111111111129  0.0185185185185222  0.0000000000000000 Si
   0.5555555555555576  0.9259259259259300  0.0000000000000000 Si
   0.5000000000000022  0.8333333333333375  0.0000000000000000 Si
   0.4444444444444464  0.7407407407407449  0.0000000000000000 Si
   0.3888888888888911  0.6481481481481524  0.0000000000000000 Si
   0.3333333333333353  0.5555555555555598  0.0000000000000000 Si
   0.2777777777777799  0.4629629629629672  0.0000000000000000 Si
   0.2222222222222245  0.3703703703703747  0.0000000000000000 Si
   0.1666666666666687  0.2777777777777821  0.0000000000000000 Si
   0.4444444444444458  0.4074074074074097  0.0000000000000000 Si
   0.5000000000000011  0.5000000000000022  0.0000000000000000 Si
   0.5555555555555567  0.5925925925925948  0.0000000000000000 Si
   0.6111111111111123  0.6851851851851873  0.0000000000000000 Si
   0.9444444444444445  0.9074074074074074  0.0000000000000000 Si
   0.8888888888888890  0.8148148148148150  0.0000000000000000 Si
   0.8333333333333335  0.7222222222222225  0.0000000000000000 Si
   0.7777777777777779  0.6296296296296300  0.0000000000000000 Si
   0.7222222222222224  0.5370370370370374  0.0000000000000000 Si
   0.6666666666666670  0.4444444444444450  0.0000000000000000 Si
   0.6111111111111114  0.3518518518518524  0.0000000000000000 Si
   0.5555555555555559  0.2592592592592600  0.0000000000000000 Si
   0.5000000000000004  0.1666666666666674  0.0000000000000000 Si
   0.4444444444444449  0.0740740740740750  0.0000000000000000 Si
   0.3888888888888894  0.9814814814814825  0.0000000000000000 Si
   0.1111111111111134  0.1851851851851896  0.0000000000000000 Si
   0.3333333333333338  0.8888888888888899  0.0000000000000000 Si
   0.2222222222222229  0.7037037037037048  0.0000000000000000 Si
   0.1666666666666673  0.6111111111111123  0.0000000000000000 Si
   0.1111111111111118  0.5185185185185199  0.0000000000000000 Si
   0.0555555555555564  0.4259259259259276  0.0000000000000000 Si
   0.0000000000000008  0.3333333333333348  0.0000000000000000 Si
   0.9444444444444453  0.2407407407407423  0.0000000000000000 Si
   0.8888888888888897  0.1481481481481499  0.0000000000000000 Si
   0.8333333333333344  0.0555555555555576  0.0000000000000000 Si
   0.7777777777777788  0.9629629629629650  0.0000000000000000 Si
   0.7222222222222232  0.8703703703703725  0.0000000000000000 Si
   0.6666666666666676  0.7777777777777799  0.0000000000000000 Si
   0.2777777777777783  0.7962962962962974  0.0000000000000000 Si
   0.0555555555555580  0.0925925925925970  0.0000000000000000 Si
