Si78
 1.000000
     2.5000000000000000    0.0000000000000000    0.0000000000000000
     0.0000000000000000  168.8749537331999875    0.0000000000000000
     0.0000000000000000    0.0000000000000000   16.0000000000000000
Si
78
Direct
   0.0000000000000000  0.0000000000000000  0.0000000000000000 Si
   0.5000000000000036  0.7051282051282051  0.0000000000000000 Si
   0.0000000000000000  0.6923076923076923  0.0000000000000000 Si
   0.5000000000000000  0.6794871794871795  0.0000000000000000 Si
   0.0000000000000000  0.6666666666666666  0.0000000000000000 Si
   0.5000000000000000  0.6538461538461539  0.0000000000000000 Si
   0.0000000000000036  0.6410256410256410  0.0000000000000000 Si
   0.5000000000000000  0.6282051282051282  0.0000000000000000 Si
   0.0000000000000000  0.6153846153846154  0.0000000000000000 Si
   0.5000000000000000  0.6025641025641025  0.0000000000000000 Si
   0.0000000000000000  0.5897435897435898  0.0000000000000000 Si
   0.5000000000000036  0.5769230769230769  0.0000000000000000 Si
   0.0000000000000000  0.5641025641025641  0.0000000000000000 Si
   0.5000000000000036  0.5512820512820512  0.0000000000000000 Si
   0.0000000000000000  0.5384615384615384  0.0000000000000000 Si
   0.5000000000000000  0.5256410256410257  0.0000000000000000 Si
   0.0000000000000000  0.7179487179487180  0.0000000000000000 Si
   0.5000000000000000  0.7307692307692307  0.0000000000000000 Si
   0.0000000000000000  0.7435897435897436  0.0000000000000000 Si
   0.5000000000000000  0.7564102564102564  0.0000000000000000 Si
   0.5000000000000000  0.9615384615384615  0.0000000000000000 Si
   0.0000000000000000  0.9487179487179487  0.0000000000000000 Si
   0.5000000000000000  0.9358974358974359  0.0000000000000000 Si
   0.0000000000000000  0.9230769230769230  0.0000000000000000 Si
   0.5000000000000000  0.9102564102564102  0.0000000000000000 Si
   0.0000000000000000  0.8974358974358974  0.0000000000000000 Si
   0.5000000000000000  0.8846153846153846  0.0000000000000000 Si
   0.0000000000000000  0.5128205128205128  0.0000000000000000 Si
   0.0000000000000000  0.8717948717948718  0.0000000000000000 Si
   0.0000000000000000  0.8461538461538461  0.0000000000000000 Si
   0.5000000000000000  0.8333333333333333  0.0000000000000000 Si
   0.0000000000000000  0.8205128205128205  0.0000000000000000 Si
   0.5000000000000000  0.8076923076923077  0.0000000000000000 Si
   0.0000000000000036  0.7948717948717948  0.0000000000000000 Si
   0.5000000000000000  0.7820512820512820  0.0000000000000000 Si
   0.0000000000000036  0.7692307692307692  0.0000000000000000 Si
   0.5000000000000000  0.8589743589743589  0.0000000000000000 Si
   0.5000000000000000  0.5000000000000000  0.0000000000000000 Si
   0.0000000000000000  0.4871794871794872  0.0000000000000000 Si
   0.5000000000000000  0.4743589743589743  0.0000000000000000 Si
   0.0000000000000000  0.2051282051282051  0.0000000000000000 Si
   0.5000000000000009  0.1923076923076923  0.0000000000000000 Si
   0.0000000000000000  0.1794871794871795  0.0000000000000000 Si
   0.5000000000000000  0.1666666666666667  0.0000000000000000 Si
   0.0000000000000000  0.1538461538461539  0.0000000000000000 Si
   0.5000000000000000  0.1410256410256410  0.0000000000000000 Si
   0.0000000000000000  0.1282051282051282  0.0000000000000000 Si
   0.5000000000000000  0.2179487179487180  0.0000000000000000 Si
   0.5000000000000000  0.1153846153846154  0.0000000000000000 Si
   0.5000000000000000  0.0897435897435897  0.0000000000000000 Si
   0.0000000000000000  0.0769230769230769  0.0000000000000000 Si
   0.5000000000000000  0.0641025641025641  0.0000000000000000 Si
   0.0000000000000000  0.0512820512820513  0.0000000000000000 Si
   0.5000000000000000  0.0384615384615385  0.0000000000000000 Si
   0.0000000000000000  0.0256410256410256  0.0000000000000000 Si
   0.5000000000000000  0.0128205128205128  0.0000000000000000 Si
   0.0000000000000000  0.1025641025641026  0.0000000000000000 Si
   0.0000000000000000  0.9743589743589743  0.0000000000000000 Si
   0.0000000000000000  0.2307692307692308  0.0000000000000000 Si
   0.0000000000000000  0.2564102564102564  0.0000000000000000 Si
   0.0000000000000000  0.4615384615384615  0.0000000000000000 Si
   0.5000000000000000  0.4487179487179487  0.0000000000000000 Si
   0.0000000000000000  0.4358974358974359  0.0000000000000000 Si
   0.5000000000000000  0.4230769230769231  0.0000000000000000 Si
   0.0000000000000000  0.4102564102564102  0.0000000000000000 Si
   0.5000000000000018  0.3974358974358974  0.0000000000000000 Si
   0.0000000000000018  0.3846153846153846  0.0000000000000000 Si
   0.5000000000000000  0.2435897435897436  0.0000000000000000 Si
   0.5000000000000000  0.3717948717948718  0.0000000000000000 Si
   0.5000000000000000  0.3461538461538461  0.0000000000000000 Si
   0.0000000000000000  0.3333333333333333  0.0000000000000000 Si
   0.5000000000000018  0.3205128205128205  0.0000000000000000 Si
   0.0000000000000000  0.3076923076923077  0.0000000000000000 Si
   0.5000000000000000  0.2948717948717949  0.0000000000000000 Si
   0.0000000000000000  0.2820512820512820  0.0000000000000000 Si
   0.5000000000000000  0.2692307692307692  0.0000000000000000 Si
   0.0000000000000000  0.3589743589743590  0.0000000000000000 Si
   0.5000000000000000  0.9871794871794871  0.0000000000000000 Si
