Si92
 1.000000
    -1.2500000000000000   15.1554445658000247    0.0000000000000000
   -32.5000000000000000   -4.3301270188000842    0.0000000000000000
     0.0000000000000000    0.0000000000000000   16.0000000000000000
Si
92
Direct
   0.0000000000000000  0.0000000000000000  0.0000000000000000 Si
   0.0434782608695699  0.1521739130434789  0.0000000000000000 Si
   0.8913043478260931  0.1195652173913055  0.0000000000000000 Si
   0.7391304347826129  0.0869565217391313  0.0000000000000000 Si
   0.5869565217391344  0.0543478260869574  0.0000000000000000 Si
   0.4347826086956577  0.0217391304347836  0.0000000000000000 Si
   0.2826086956521774  0.9891304347826093  0.0000000000000000 Si
   0.1304347826087007  0.9565217391304357  0.0000000000000000 Si
   0.9782608695652222  0.9239130434782616  0.0000000000000000 Si
   0.8260869565217437  0.8913043478260878  0.0000000000000000 Si
   0.6739130434782652  0.8586956521739137  0.0000000000000000 Si
   0.5217391304347867  0.8260869565217401  0.0000000000000000 Si
   0.3695652173913082  0.7934782608695661  0.0000000000000000 Si
   0.2173913043478297  0.7608695652173920  0.0000000000000000 Si
   0.0652173913043512  0.7282608695652182  0.0000000000000000 Si
   0.9130434782608727  0.6956521739130441  0.0000000000000000 Si
   0.7608695652173951  0.6630434782608703  0.0000000000000000 Si
   0.6086956521739166  0.6304347826086962  0.0000000000000000 Si
   0.4565217391304390  0.5978260869565226  0.0000000000000000 Si
   0.3043478260869596  0.5652173913043486  0.0000000000000000 Si
   0.1956521739130483  0.1847826086956532  0.0000000000000000 Si
   0.1521739130434812  0.5326086956521745  0.0000000000000000 Si
   0.3478260869565268  0.2173913043478271  0.0000000000000000 Si
   0.6521739130434820  0.2826086956521747  0.0000000000000000 Si
   0.5434782608695716  0.9021739130434794  0.0000000000000000 Si
   0.3913043478260949  0.8695652173913055  0.0000000000000000 Si
   0.2391304347826146  0.8369565217391317  0.0000000000000000 Si
   0.0869565217391362  0.8043478260869574  0.0000000000000000 Si
   0.9347826086956594  0.7717391304347840  0.0000000000000000 Si
   0.7826086956521792  0.7391304347826098  0.0000000000000000 Si
   0.6304347826087024  0.7065217391304359  0.0000000000000000 Si
   0.4782608695652240  0.6739130434782621  0.0000000000000000 Si
   0.3260869565217455  0.6413043478260883  0.0000000000000000 Si
   0.1739130434782670  0.6086956521739140  0.0000000000000000 Si
   0.0217391304347885  0.5760869565217401  0.0000000000000000 Si
   0.8695652173913100  0.5434782608695663  0.0000000000000000 Si
   0.7173913043478315  0.5108695652173925  0.0000000000000000 Si
   0.5652173913043530  0.4782608695652186  0.0000000000000000 Si
   0.4130434782608745  0.4456521739130443  0.0000000000000000 Si
   0.2608695652173978  0.4130434782608705  0.0000000000000000 Si
   0.1086956521739175  0.3804347826086967  0.0000000000000000 Si
   0.9565217391304390  0.3478260869565224  0.0000000000000000 Si
   0.8043478260869623  0.3152173913043490  0.0000000000000000 Si
   0.5000000000000053  0.2500000000000009  0.0000000000000000 Si
   0.0000000000000036  0.5000000000000007  0.0000000000000000 Si
   0.8478260869565251  0.4673913043478268  0.0000000000000000 Si
   0.6956521739130475  0.4347826086956528  0.0000000000000000 Si
   0.8913043478260883  0.6195652173913047  0.0000000000000000 Si
   0.7391304347826098  0.5869565217391306  0.0000000000000000 Si
   0.5869565217391317  0.5543478260869568  0.0000000000000000 Si
   0.4347826086956532  0.5217391304347828  0.0000000000000000 Si
   0.2826086956521752  0.4891304347826089  0.0000000000000000 Si
   0.1304347826086967  0.4565217391304350  0.0000000000000000 Si
   0.9782608695652182  0.4239130434782610  0.0000000000000000 Si
   0.8260869565217399  0.3913043478260871  0.0000000000000000 Si
   0.6739130434782619  0.3586956521739132  0.0000000000000000 Si
   0.5217391304347834  0.3260869565217392  0.0000000000000000 Si
   0.3695652173913049  0.2934782608695653  0.0000000000000000 Si
   0.2173913043478266  0.2608695652173914  0.0000000000000000 Si
   0.0652173913043483  0.2282608695652175  0.0000000000000000 Si
   0.9130434782608700  0.1956521739130436  0.0000000000000000 Si
   0.7608695652173917  0.1630434782608696  0.0000000000000000 Si
   0.6086956521739133  0.1304347826086957  0.0000000000000000 Si
   0.4565217391304350  0.0978260869565218  0.0000000000000000 Si
   0.3043478260869567  0.0652173913043479  0.0000000000000000 Si
   0.1521739130434783  0.0326086956521739  0.0000000000000000 Si
   0.0434782608695667  0.6521739130434785  0.0000000000000000 Si
   0.1956521739130448  0.6847826086956524  0.0000000000000000 Si
   0.3478260869565237  0.7173913043478264  0.0000000000000000 Si
   0.5000000000000018  0.7500000000000003  0.0000000000000000 Si
   0.5434782608695681  0.4021739130434787  0.0000000000000000 Si
   0.3913043478260896  0.3695652173913049  0.0000000000000000 Si
   0.2391304347826120  0.3369565217391310  0.0000000000000000 Si
   0.0869565217391335  0.3043478260869570  0.0000000000000000 Si
   0.9347826086956550  0.2717391304347831  0.0000000000000000 Si
   0.7826086956521765  0.2391304347826093  0.0000000000000000 Si
   0.6304347826086989  0.2065217391304353  0.0000000000000000 Si
   0.4782608695652195  0.1739130434782612  0.0000000000000000 Si
   0.3260869565217410  0.1413043478260874  0.0000000000000000 Si
   0.6956521739130501  0.9347826086956537  0.0000000000000000 Si
   0.1739130434782634  0.1086956521739135  0.0000000000000000 Si
   0.8695652173913064  0.0434782608695656  0.0000000000000000 Si
   0.7173913043478288  0.0108695652173918  0.0000000000000000 Si
   0.5652173913043503  0.9782608695652178  0.0000000000000000 Si
   0.4130434782608718  0.9456521739130439  0.0000000000000000 Si
   0.2608695652173934  0.9130434782608701  0.0000000000000000 Si
   0.1086956521739149  0.8804347826086960  0.0000000000000000 Si
   0.9565217391304364  0.8478260869565221  0.0000000000000000 Si
   0.8043478260869583  0.8152173913043481  0.0000000000000000 Si
   0.6521739130434798  0.7826086956521743  0.0000000000000000 Si
   0.0217391304347849  0.0760869565217395  0.0000000000000000 Si
   0.8478260869565286  0.9673913043478271  0.0000000000000000 Si
