Si74
 1.000000
    13.7500000000000000    6.4951905281999984    0.0000000000000000
   -11.2500000000000000   23.8156986033999978    0.0000000000000000
     0.0000000000000000    0.0000000000000000   16.0000000000000000
Si
74
Direct
   0.0000000000000000  0.0000000000000000  0.0000000000000000 Si
   0.2972972972972973  0.9189189189189193  0.0000000000000000 Si
   0.3108108108108107  0.8243243243243246  0.0000000000000000 Si
   0.3243243243243243  0.7297297297297298  0.0000000000000000 Si
   0.3378378378378378  0.6351351351351351  0.0000000000000000 Si
   0.3513513513513513  0.5405405405405403  0.0000000000000000 Si
   0.3648648648648648  0.4459459459459465  0.0000000000000000 Si
   0.2837837837837838  0.0135135135135140  0.0000000000000000 Si
   0.3783783783783783  0.3513513513513518  0.0000000000000000 Si
   0.4054054054054054  0.1621621621621623  0.0000000000000000 Si
   0.4189189189189189  0.0675675675675684  0.0000000000000000 Si
   0.4324324324324325  0.9729729729729728  0.0000000000000000 Si
   0.4459459459459459  0.8783783783783785  0.0000000000000000 Si
   0.4594594594594594  0.7837837837837842  0.0000000000000000 Si
   0.4729729729729729  0.6891891891891895  0.0000000000000000 Si
   0.3918918918918919  0.2567567567567570  0.0000000000000000 Si
   0.2702702702702702  0.1081081081081088  0.0000000000000000 Si
   0.2567567567567567  0.2027027027027035  0.0000000000000000 Si
   0.2432432432432432  0.2972972972972974  0.0000000000000000 Si
   0.0405405405405405  0.7162162162162167  0.0000000000000000 Si
   0.0540540540540539  0.6216216216216228  0.0000000000000000 Si
   0.0675675675675675  0.5270270270270272  0.0000000000000000 Si
   0.0810810810810810  0.4324324324324325  0.0000000000000000 Si
   0.0945945945945945  0.3378378378378386  0.0000000000000000 Si
   0.1081081081081081  0.2432432432432430  0.0000000000000000 Si
   0.1216216216216216  0.1486486486486491  0.0000000000000000 Si
   0.1351351351351351  0.0540540540540544  0.0000000000000000 Si
   0.1486486486486486  0.9594594594594597  0.0000000000000000 Si
   0.1621621621621621  0.8648648648648658  0.0000000000000000 Si
   0.1756756756756757  0.7702702702702702  0.0000000000000000 Si
   0.1891891891891891  0.6756756756756763  0.0000000000000000 Si
   0.2027027027027026  0.5810810810810816  0.0000000000000000 Si
   0.2162162162162162  0.4864864864864860  0.0000000000000000 Si
   0.2297297297297297  0.3918918918918921  0.0000000000000000 Si
   0.4864864864864864  0.5945945945945952  0.0000000000000000 Si
   0.5000000000000000  0.5000000000000000  0.0000000000000000 Si
   0.5135135135135135  0.4054054054054057  0.0000000000000000 Si
   0.5270270270270270  0.3108108108108114  0.0000000000000000 Si
   0.7972972972972973  0.4189189189189191  0.0000000000000000 Si
   0.8108108108108107  0.3243243243243243  0.0000000000000000 Si
   0.8243243243243243  0.2297297297297298  0.0000000000000000 Si
   0.8378378378378378  0.1351351351351351  0.0000000000000000 Si
   0.8513513513513513  0.0405405405405406  0.0000000000000000 Si
   0.8648648648648649  0.9459459459459461  0.0000000000000000 Si
   0.8783783783783784  0.8513513513513514  0.0000000000000000 Si
   0.8918918918918919  0.7567567567567568  0.0000000000000000 Si
   0.9054054054054054  0.6621621621621622  0.0000000000000000 Si
   0.9189189189189189  0.5675675675675675  0.0000000000000000 Si
   0.9324324324324325  0.4729729729729730  0.0000000000000000 Si
   0.9459459459459459  0.3783783783783784  0.0000000000000000 Si
   0.9594594594594594  0.2837837837837838  0.0000000000000000 Si
   0.9729729729729730  0.1891891891891892  0.0000000000000000 Si
   0.9864864864864865  0.0945945945945946  0.0000000000000000 Si
   0.7837837837837838  0.5135135135135136  0.0000000000000000 Si
   0.0270270270270270  0.8108108108108114  0.0000000000000000 Si
   0.7702702702702703  0.6081081081081081  0.0000000000000000 Si
   0.7432432432432432  0.7972972972972976  0.0000000000000000 Si
   0.5405405405405406  0.2162162162162162  0.0000000000000000 Si
   0.5540540540540541  0.1216216216216215  0.0000000000000000 Si
   0.5675675675675675  0.0270270270270272  0.0000000000000000 Si
   0.5810810810810810  0.9324324324324329  0.0000000000000000 Si
   0.5945945945945945  0.8378378378378382  0.0000000000000000 Si
   0.6081081081081081  0.7432432432432430  0.0000000000000000 Si
   0.6216216216216216  0.6486486486486487  0.0000000000000000 Si
   0.6351351351351351  0.5540540540540544  0.0000000000000000 Si
   0.6486486486486487  0.4594594594594597  0.0000000000000000 Si
   0.6621621621621622  0.3648648648648649  0.0000000000000000 Si
   0.6756756756756757  0.2702702702702702  0.0000000000000000 Si
   0.6891891891891891  0.1756756756756759  0.0000000000000000 Si
   0.7027027027027026  0.0810810810810811  0.0000000000000000 Si
   0.7162162162162162  0.9864864864864864  0.0000000000000000 Si
   0.7297297297297297  0.8918918918918921  0.0000000000000000 Si
   0.7567567567567568  0.7027027027027029  0.0000000000000000 Si
   0.0135135135135135  0.9054054054054053  0.0000000000000000 Si
