Si66
 1.000000
     3.7500000000000000  -10.8253175469999992   -0.0000000000000000
   -30.0000000000000000   -8.6602540375999979   -0.0000000000000000
    -0.0000000000000000   -0.0000000000000000  -16.0000000000000000
Si
66
Direct
   0.0000000000000000  0.0000000000000000  0.0000000000000000 Si
   0.4242424242424239  0.4696969696969697  0.0000000000000000 Si
   0.6363636363636358  0.4545454545454546  0.0000000000000000 Si
   0.8484848484848495  0.4393939393939393  0.0000000000000000 Si
   0.0606060606060606  0.4242424242424242  0.0000000000000000 Si
   0.2727272727272734  0.4090909090909091  0.0000000000000000 Si
   0.4848484848484844  0.3939393939393939  0.0000000000000000 Si
   0.6969696969696972  0.3787878787878788  0.0000000000000000 Si
   0.9090909090909083  0.3636363636363636  0.0000000000000000 Si
   0.1212121212121211  0.3484848484848485  0.0000000000000000 Si
   0.3333333333333339  0.3333333333333333  0.0000000000000000 Si
   0.5454545454545467  0.3181818181818181  0.0000000000000000 Si
   0.7575757575757578  0.3030303030303030  0.0000000000000000 Si
   0.9696969696969706  0.2878787878787878  0.0000000000000000 Si
   0.1818181818181817  0.2727272727272727  0.0000000000000000 Si
   0.3939393939393945  0.2575757575757576  0.0000000000000000 Si
   0.6060606060606055  0.2424242424242424  0.0000000000000000 Si
   0.8181818181818183  0.2272727272727273  0.0000000000000000 Si
   0.0303030303030294  0.2121212121212122  0.0000000000000000 Si
   0.2424242424242440  0.1969696969696969  0.0000000000000000 Si
   0.4545454545454550  0.1818181818181818  0.0000000000000000 Si
   0.6666666666666679  0.1666666666666666  0.0000000000000000 Si
   0.8787878787878789  0.1515151515151515  0.0000000000000000 Si
   0.0909090909090917  0.1363636363636364  0.0000000000000000 Si
   0.3030303030303028  0.1212121212121212  0.0000000000000000 Si
   0.5151515151515156  0.1060606060606061  0.0000000000000000 Si
   0.7272727272727284  0.0909090909090908  0.0000000000000000 Si
   0.9393939393939412  0.0757575757575757  0.0000000000000000 Si
   0.1515151515151523  0.0606060606060606  0.0000000000000000 Si
   0.3636363636363633  0.0454545454545454  0.0000000000000000 Si
   0.2121212121212119  0.4848484848484849  0.0000000000000000 Si
   0.0000000000000000  0.5000000000000000  0.0000000000000000 Si
   0.7878787878787881  0.5151515151515151  0.0000000000000000 Si
   0.5757575757575761  0.5303030303030303  0.0000000000000000 Si
   0.2121212121212121  0.9848484848484849  0.0000000000000000 Si
   0.4242424242424243  0.9696969696969697  0.0000000000000000 Si
   0.6363636363636364  0.9545454545454546  0.0000000000000000 Si
   0.8484848484848485  0.9393939393939394  0.0000000000000000 Si
   0.0606060606060606  0.9242424242424242  0.0000000000000000 Si
   0.2727272727272727  0.9090909090909091  0.0000000000000000 Si
   0.4848484848484849  0.8939393939393939  0.0000000000000000 Si
   0.6969696969696970  0.8787878787878788  0.0000000000000000 Si
   0.9090909090909089  0.8636363636363636  0.0000000000000000 Si
   0.1212121212121211  0.8484848484848485  0.0000000000000000 Si
   0.3333333333333335  0.8333333333333333  0.0000000000000000 Si
   0.5454545454545454  0.8181818181818181  0.0000000000000000 Si
   0.7575757575757573  0.8030303030303030  0.0000000000000000 Si
   0.9696969696969697  0.7878787878787878  0.0000000000000000 Si
   0.5757575757575761  0.0303030303030303  0.0000000000000000 Si
   0.1818181818181821  0.7727272727272727  0.0000000000000000 Si
   0.6060606060606060  0.7424242424242424  0.0000000000000000 Si
   0.8181818181818179  0.7272727272727273  0.0000000000000000 Si
   0.0303030303030303  0.7121212121212122  0.0000000000000000 Si
   0.2424242424242422  0.6969696969696970  0.0000000000000000 Si
   0.4545454545454541  0.6818181818181819  0.0000000000000000 Si
   0.6666666666666670  0.6666666666666666  0.0000000000000000 Si
   0.8787878787878789  0.6515151515151515  0.0000000000000000 Si
   0.0909090909090908  0.6363636363636364  0.0000000000000000 Si
   0.3030303030303028  0.6212121212121212  0.0000000000000000 Si
   0.5151515151515147  0.6060606060606061  0.0000000000000000 Si
   0.7272727272727275  0.5909090909090908  0.0000000000000000 Si
   0.9393939393939394  0.5757575757575757  0.0000000000000000 Si
   0.1515151515151514  0.5606060606060606  0.0000000000000000 Si
   0.3636363636363642  0.5454545454545454  0.0000000000000000 Si
   0.3939393939393940  0.7575757575757576  0.0000000000000000 Si
   0.7878787878787890  0.0151515151515151  0.0000000000000000 Si
