Si100
 1.000000
    20.0000000000000000   -4.3301270187999990    0.0000000000000000
     5.0000000000000000   25.9807621127999937    0.0000000000000000
     0.0000000000000000    0.0000000000000000   16.0000000000000000
Si
100
Direct
   0.0000000000000000  0.0000000000000000  0.0000000000000000 Si
   0.2400000000000002  0.0400000000000000  0.0000000000000000 Si
   0.3200000000000003  0.9699999999999998  0.0000000000000000 Si
   0.3999999999999995  0.9000000000000004  0.0000000000000000 Si
   0.4799999999999995  0.8300000000000001  0.0000000000000000 Si
   0.5599999999999996  0.7600000000000007  0.0000000000000000 Si
   0.6399999999999997  0.6900000000000004  0.0000000000000000 Si
   0.7199999999999998  0.6200000000000001  0.0000000000000000 Si
   0.7999999999999998  0.5499999999999998  0.0000000000000000 Si
   0.8799999999999999  0.4800000000000004  0.0000000000000000 Si
   0.9600000000000000  0.4100000000000001  0.0000000000000000 Si
   0.0400000000000000  0.3399999999999999  0.0000000000000000 Si
   0.1200000000000001  0.2699999999999996  0.0000000000000000 Si
   0.2000000000000002  0.2000000000000002  0.0000000000000000 Si
   0.2800000000000002  0.1299999999999999  0.0000000000000000 Si
   0.3600000000000003  0.0599999999999996  0.0000000000000000 Si
   0.4399999999999995  0.9900000000000002  0.0000000000000000 Si
   0.5199999999999996  0.9200000000000004  0.0000000000000000 Si
   0.5999999999999996  0.8500000000000005  0.0000000000000000 Si
   0.6799999999999997  0.7800000000000002  0.0000000000000000 Si
   0.7599999999999998  0.7100000000000000  0.0000000000000000 Si
   0.8399999999999999  0.6400000000000001  0.0000000000000000 Si
   0.1600000000000001  0.1099999999999994  0.0000000000000000 Si
   0.9199999999999999  0.5700000000000003  0.0000000000000000 Si
   0.0800000000000001  0.1799999999999997  0.0000000000000000 Si
   0.9199999999999999  0.3200000000000003  0.0000000000000000 Si
   0.2400000000000002  0.7900000000000000  0.0000000000000000 Si
   0.3200000000000003  0.7199999999999998  0.0000000000000000 Si
   0.3999999999999995  0.6500000000000004  0.0000000000000000 Si
   0.4799999999999995  0.5800000000000001  0.0000000000000000 Si
   0.5599999999999996  0.5100000000000007  0.0000000000000000 Si
   0.6399999999999997  0.4400000000000004  0.0000000000000000 Si
   0.7199999999999998  0.3700000000000001  0.0000000000000000 Si
   0.7999999999999998  0.2999999999999998  0.0000000000000000 Si
   0.8799999999999999  0.2300000000000004  0.0000000000000000 Si
   0.9600000000000000  0.1600000000000001  0.0000000000000000 Si
   0.0400000000000000  0.0899999999999999  0.0000000000000000 Si
   0.1200000000000001  0.0199999999999996  0.0000000000000000 Si
   0.2000000000000002  0.9500000000000002  0.0000000000000000 Si
   0.2800000000000002  0.8799999999999999  0.0000000000000000 Si
   0.3599999999999994  0.8100000000000005  0.0000000000000000 Si
   0.4399999999999995  0.7400000000000002  0.0000000000000000 Si
   0.5199999999999996  0.6699999999999999  0.0000000000000000 Si
   0.5999999999999996  0.6000000000000005  0.0000000000000000 Si
   0.6799999999999997  0.5300000000000002  0.0000000000000000 Si
   0.7599999999999998  0.4600000000000000  0.0000000000000000 Si
   0.8399999999999999  0.3900000000000006  0.0000000000000000 Si
   0.0000000000000000  0.2500000000000000  0.0000000000000000 Si
   0.0000000000000000  0.5000000000000000  0.0000000000000000 Si
   0.0800000000000001  0.4299999999999997  0.0000000000000000 Si
   0.1600000000000001  0.3599999999999999  0.0000000000000000 Si
   0.3200000000000001  0.4700000000000000  0.0000000000000000 Si
   0.3999999999999999  0.4000000000000001  0.0000000000000000 Si
   0.4800000000000000  0.3300000000000001  0.0000000000000000 Si
   0.5600000000000001  0.2600000000000000  0.0000000000000000 Si
   0.6399999999999999  0.1900000000000002  0.0000000000000000 Si
   0.7200000000000000  0.1200000000000001  0.0000000000000000 Si
   0.8000000000000000  0.0500000000000000  0.0000000000000000 Si
   0.8799999999999999  0.9800000000000001  0.0000000000000000 Si
   0.9600000000000000  0.9100000000000000  0.0000000000000000 Si
   0.0400000000000000  0.8400000000000000  0.0000000000000000 Si
   0.1200000000000000  0.7700000000000000  0.0000000000000000 Si
   0.2000000000000000  0.7000000000000001  0.0000000000000000 Si
   0.2800000000000000  0.6300000000000000  0.0000000000000000 Si
   0.3600000000000000  0.5600000000000001  0.0000000000000000 Si
   0.4399999999999999  0.4900000000000000  0.0000000000000000 Si
   0.5200000000000000  0.4200000000000000  0.0000000000000000 Si
   0.6000000000000000  0.3500000000000000  0.0000000000000000 Si
   0.6799999999999999  0.2800000000000000  0.0000000000000000 Si
   0.7600000000000000  0.2100000000000000  0.0000000000000000 Si
   0.8400000000000000  0.1400000000000000  0.0000000000000000 Si
   0.9200000000000000  0.0700000000000000  0.0000000000000000 Si
   0.2400000000000000  0.5400000000000000  0.0000000000000000 Si
   0.1599999999999999  0.6100000000000001  0.0000000000000000 Si
   0.0800000000000001  0.6799999999999999  0.0000000000000000 Si
   0.0000000000000000  0.7500000000000000  0.0000000000000000 Si
   0.2399999999999998  0.2900000000000000  0.0000000000000000 Si
   0.3199999999999998  0.2200000000000002  0.0000000000000000 Si
   0.3999999999999999  0.1499999999999999  0.0000000000000000 Si
   0.4800000000000000  0.0800000000000001  0.0000000000000000 Si
   0.5600000000000001  0.0099999999999998  0.0000000000000000 Si
   0.6400000000000001  0.9399999999999999  0.0000000000000000 Si
   0.7199999999999998  0.8700000000000001  0.0000000000000000 Si
   0.7999999999999998  0.8000000000000003  0.0000000000000000 Si
   0.8799999999999999  0.7300000000000000  0.0000000000000000 Si
   0.9600000000000000  0.6600000000000001  0.0000000000000000 Si
   0.1600000000000001  0.8599999999999994  0.0000000000000000 Si
   0.0400000000000000  0.5899999999999999  0.0000000000000000 Si
   0.1999999999999997  0.4500000000000002  0.0000000000000000 Si
   0.2799999999999998  0.3800000000000003  0.0000000000000000 Si
   0.3599999999999999  0.3100000000000001  0.0000000000000000 Si
   0.4399999999999999  0.2400000000000002  0.0000000000000000 Si
   0.5200000000000000  0.1699999999999999  0.0000000000000000 Si
   0.6000000000000001  0.1000000000000001  0.0000000000000000 Si
   0.6800000000000002  0.0299999999999998  0.0000000000000000 Si
   0.7599999999999998  0.9600000000000002  0.0000000000000000 Si
   0.8399999999999999  0.8900000000000001  0.0000000000000000 Si
   0.9199999999999999  0.8200000000000001  0.0000000000000000 Si
   0.1200000000000001  0.5200000000000000  0.0000000000000000 Si
   0.0800000000000001  0.9299999999999997  0.0000000000000000 Si
