Si100
 1.000000
     2.5000000000000000   21.6506350939999948    0.0000000000000000
   -25.0000000000000000    0.0000000000000284    0.0000000000000000
     0.0000000000000000    0.0000000000000000   16.0000000000000000
Si
100
Direct
   0.0000000000000000  0.0000000000000000  0.0000000000000000 Si
   0.1999999999999971  0.8199999999999985  0.0000000000000000 Si
   0.0999999999999970  0.7599999999999987  0.0000000000000000 Si
   0.9999999999999973  0.6999999999999986  0.0000000000000000 Si
   0.8999999999999972  0.6399999999999988  0.0000000000000000 Si
   0.7999999999999976  0.5799999999999987  0.0000000000000000 Si
   0.6999999999999975  0.5199999999999989  0.0000000000000000 Si
   0.5999999999999979  0.4599999999999989  0.0000000000000000 Si
   0.4999999999999978  0.3999999999999988  0.0000000000000000 Si
   0.3999999999999981  0.3399999999999990  0.0000000000000000 Si
   0.2999999999999980  0.2799999999999989  0.0000000000000000 Si
   0.1999999999999980  0.2199999999999991  0.0000000000000000 Si
   0.0999999999999983  0.1599999999999990  0.0000000000000000 Si
   0.9999999999999982  0.0999999999999992  0.0000000000000000 Si
   0.8999999999999984  0.0399999999999991  0.0000000000000000 Si
   0.7999999999999985  0.9799999999999992  0.0000000000000000 Si
   0.6999999999999984  0.9199999999999992  0.0000000000000000 Si
   0.5999999999999985  0.8599999999999993  0.0000000000000000 Si
   0.4999999999999987  0.7999999999999993  0.0000000000000000 Si
   0.3999999999999988  0.7399999999999993  0.0000000000000000 Si
   0.2999999999999989  0.6799999999999994  0.0000000000000000 Si
   0.1999999999999988  0.6199999999999994  0.0000000000000000 Si
   0.2999999999999972  0.8799999999999986  0.0000000000000000 Si
   0.0999999999999990  0.5599999999999995  0.0000000000000000 Si
   0.3999999999999968  0.9399999999999984  0.0000000000000000 Si
   0.5999999999999970  0.0599999999999983  0.0000000000000000 Si
   0.6999999999999948  0.3199999999999976  0.0000000000000000 Si
   0.5999999999999952  0.2599999999999976  0.0000000000000000 Si
   0.4999999999999956  0.1999999999999975  0.0000000000000000 Si
   0.3999999999999950  0.1399999999999975  0.0000000000000000 Si
   0.2999999999999954  0.0799999999999974  0.0000000000000000 Si
   0.1999999999999948  0.0199999999999978  0.0000000000000000 Si
   0.0999999999999961  0.9599999999999977  0.0000000000000000 Si
   0.9999999999999956  0.8999999999999977  0.0000000000000000 Si
   0.8999999999999959  0.8399999999999981  0.0000000000000000 Si
   0.7999999999999954  0.7799999999999980  0.0000000000000000 Si
   0.6999999999999957  0.7199999999999980  0.0000000000000000 Si
   0.5999999999999961  0.6599999999999979  0.0000000000000000 Si
   0.4999999999999956  0.5999999999999979  0.0000000000000000 Si
   0.3999999999999959  0.5399999999999983  0.0000000000000000 Si
   0.2999999999999963  0.4799999999999982  0.0000000000000000 Si
   0.1999999999999966  0.4199999999999982  0.0000000000000000 Si
   0.0999999999999961  0.3599999999999981  0.0000000000000000 Si
   0.9999999999999964  0.2999999999999980  0.0000000000000000 Si
   0.8999999999999964  0.2399999999999980  0.0000000000000000 Si
   0.7999999999999967  0.1799999999999984  0.0000000000000000 Si
   0.6999999999999971  0.1199999999999983  0.0000000000000000 Si
   0.4999999999999969  0.9999999999999984  0.0000000000000000 Si
   0.9999999999999991  0.4999999999999996  0.0000000000000000 Si
   0.8999999999999959  0.9399999999999977  0.0000000000000000 Si
   0.7999999999999954  0.8799999999999977  0.0000000000000000 Si
   0.0999999999999979  0.2599999999999991  0.0000000000000000 Si
   0.9999999999999982  0.1999999999999991  0.0000000000000000 Si
   0.8999999999999984  0.1399999999999992  0.0000000000000000 Si
   0.7999999999999983  0.0799999999999992  0.0000000000000000 Si
   0.6999999999999986  0.0199999999999994  0.0000000000000000 Si
   0.5999999999999985  0.9599999999999993  0.0000000000000000 Si
   0.4999999999999987  0.8999999999999994  0.0000000000000000 Si
   0.3999999999999988  0.8399999999999994  0.0000000000000000 Si
   0.2999999999999989  0.7799999999999995  0.0000000000000000 Si
   0.1999999999999988  0.7199999999999994  0.0000000000000000 Si
   0.0999999999999990  0.6599999999999995  0.0000000000000000 Si
   0.9999999999999991  0.5999999999999995  0.0000000000000000 Si
   0.8999999999999991  0.5399999999999996  0.0000000000000000 Si
   0.7999999999999993  0.4799999999999996  0.0000000000000000 Si
   0.6999999999999994  0.4199999999999997  0.0000000000000000 Si
   0.5999999999999994  0.3599999999999997  0.0000000000000000 Si
   0.4999999999999996  0.2999999999999998  0.0000000000000000 Si
   0.3999999999999996  0.2399999999999998  0.0000000000000000 Si
   0.2999999999999997  0.1799999999999999  0.0000000000000000 Si
   0.1999999999999998  0.1199999999999999  0.0000000000000000 Si
   0.0999999999999999  0.0600000000000000  0.0000000000000000 Si
   0.1999999999999980  0.3199999999999990  0.0000000000000000 Si
   0.2999999999999980  0.3799999999999990  0.0000000000000000 Si
   0.3999999999999977  0.4399999999999988  0.0000000000000000 Si
   0.4999999999999978  0.4999999999999989  0.0000000000000000 Si
   0.6999999999999957  0.8199999999999981  0.0000000000000000 Si
   0.5999999999999961  0.7599999999999980  0.0000000000000000 Si
   0.4999999999999964  0.6999999999999980  0.0000000000000000 Si
   0.3999999999999959  0.6399999999999979  0.0000000000000000 Si
   0.2999999999999963  0.5799999999999979  0.0000000000000000 Si
   0.1999999999999957  0.5199999999999982  0.0000000000000000 Si
   0.0999999999999970  0.4599999999999982  0.0000000000000000 Si
   0.9999999999999964  0.3999999999999981  0.0000000000000000 Si
   0.8999999999999968  0.3399999999999985  0.0000000000000000 Si
   0.7999999999999967  0.2799999999999985  0.0000000000000000 Si
   0.7999999999999945  0.3799999999999972  0.0000000000000000 Si
   0.6999999999999966  0.2199999999999984  0.0000000000000000 Si
   0.4999999999999973  0.0999999999999988  0.0000000000000000 Si
   0.3999999999999972  0.0399999999999987  0.0000000000000000 Si
   0.2999999999999972  0.9799999999999986  0.0000000000000000 Si
   0.1999999999999971  0.9199999999999986  0.0000000000000000 Si
   0.0999999999999974  0.8599999999999985  0.0000000000000000 Si
   0.9999999999999973  0.7999999999999987  0.0000000000000000 Si
   0.8999999999999972  0.7399999999999987  0.0000000000000000 Si
   0.7999999999999976  0.6799999999999988  0.0000000000000000 Si
   0.6999999999999980  0.6199999999999990  0.0000000000000000 Si
   0.5999999999999979  0.5599999999999989  0.0000000000000000 Si
   0.5999999999999965  0.1599999999999984  0.0000000000000000 Si
   0.8999999999999950  0.4399999999999973  0.0000000000000000 Si
