Si79
 1.000000
    13.7500000000000000   -6.4951905281999984    0.0000000000000000
     6.2500000000000000   28.1458256221999932    0.0000000000000000
     0.0000000000000000    0.0000000000000000   16.0000000000000000
Si
79
Direct
   0.0000000000000000  0.0000000000000000  0.0000000000000000 Si
   0.6202531645569644  0.8354430379746822  0.0000000000000000 Si
   0.7341772151898764  0.7848101265822769  0.0000000000000000 Si
   0.8481012658227876  0.7341772151898720  0.0000000000000000 Si
   0.9620253164556987  0.6835443037974671  0.0000000000000000 Si
   0.0759493670886107  0.6329113924050618  0.0000000000000000 Si
   0.1898734177215209  0.5822784810126569  0.0000000000000000 Si
   0.3037974683544320  0.5316455696202520  0.0000000000000000 Si
   0.5063291139240533  0.8860759493670871  0.0000000000000000 Si
   0.4177215189873440  0.4810126582278471  0.0000000000000000 Si
   0.6455696202531671  0.3797468354430369  0.0000000000000000 Si
   0.7594936708860782  0.3291139240506320  0.0000000000000000 Si
   0.8734177215189893  0.2784810126582271  0.0000000000000000 Si
   0.9873417721519013  0.2278481012658218  0.0000000000000000 Si
   0.1012658227848116  0.1772151898734169  0.0000000000000000 Si
   0.2151898734177236  0.1265822784810116  0.0000000000000000 Si
   0.3291139240506347  0.0759493670886067  0.0000000000000000 Si
   0.5316455696202551  0.4303797468354422  0.0000000000000000 Si
   0.4430379746835458  0.0253164556962018  0.0000000000000000 Si
   0.3924050632911413  0.9367088607594924  0.0000000000000000 Si
   0.1645569620253200  0.0379746835443022  0.0000000000000000 Si
   0.3417721518987378  0.8481012658227831  0.0000000000000000 Si
   0.4556962025316498  0.7974683544303778  0.0000000000000000 Si
   0.5696202531645600  0.7468354430379729  0.0000000000000000 Si
   0.6835443037974720  0.6962025316455680  0.0000000000000000 Si
   0.7974683544303840  0.6455696202531627  0.0000000000000000 Si
   0.9113924050632942  0.5949367088607578  0.0000000000000000 Si
   0.0253164556962062  0.5443037974683524  0.0000000000000000 Si
   0.2784810126582302  0.9873417721518973  0.0000000000000000 Si
   0.1392405063291173  0.4936708860759480  0.0000000000000000 Si
   0.3670886075949404  0.3924050632911378  0.0000000000000000 Si
   0.4810126582278507  0.3417721518987329  0.0000000000000000 Si
   0.5949367088607627  0.2911392405063276  0.0000000000000000 Si
   0.7088607594936738  0.2405063291139227  0.0000000000000000 Si
   0.8227848101265849  0.1898734177215178  0.0000000000000000 Si
   0.9367088607594969  0.1392405063291124  0.0000000000000000 Si
   0.0506329113924080  0.0886075949367076  0.0000000000000000 Si
   0.2531645569620284  0.4430379746835431  0.0000000000000000 Si
   0.2278481012658258  0.8987341772151880  0.0000000000000000 Si
   0.5569620253164578  0.9746835443037964  0.0000000000000000 Si
   0.7848101265822800  0.8734177215189864  0.0000000000000000 Si
   0.1772151898734184  0.8101265822784807  0.0000000000000000 Si
   0.2911392405063300  0.7594936708860756  0.0000000000000000 Si
   0.4050632911392411  0.7088607594936706  0.0000000000000000 Si
   0.5189873417721527  0.6582278481012654  0.0000000000000000 Si
   0.6329113924050638  0.6075949367088606  0.0000000000000000 Si
   0.7468354430379753  0.5569620253164554  0.0000000000000000 Si
   0.8607594936708864  0.5063291139240504  0.0000000000000000 Si
   0.0632911392405071  0.8607594936708858  0.0000000000000000 Si
   0.9746835443037980  0.4556962025316453  0.0000000000000000 Si
   0.2025316455696206  0.3544303797468353  0.0000000000000000 Si
   0.3164556962025319  0.3037974683544303  0.0000000000000000 Si
   0.4303797468354432  0.2531645569620252  0.0000000000000000 Si
   0.5443037974683547  0.2025316455696202  0.0000000000000000 Si
   0.6582278481012660  0.1518987341772151  0.0000000000000000 Si
   0.7721518987341773  0.1012658227848101  0.0000000000000000 Si
   0.8860759493670887  0.0506329113924050  0.0000000000000000 Si
   0.0886075949367092  0.4050632911392403  0.0000000000000000 Si
   0.6708860759493689  0.9240506329113916  0.0000000000000000 Si
   0.9493670886075960  0.9113924050632907  0.0000000000000000 Si
   0.7215189873417729  0.0126582278481009  0.0000000000000000 Si
   0.8987341772151920  0.8227848101265813  0.0000000000000000 Si
   0.0126582278481031  0.7721518987341762  0.0000000000000000 Si
   0.1265822784810142  0.7215189873417716  0.0000000000000000 Si
   0.2405063291139253  0.6708860759493664  0.0000000000000000 Si
   0.3544303797468369  0.6202531645569613  0.0000000000000000 Si
   0.4683544303797484  0.5696202531645562  0.0000000000000000 Si
   0.5822784810126600  0.5189873417721511  0.0000000000000000 Si
   0.8354430379746844  0.9620253164556958  0.0000000000000000 Si
   0.6962025316455707  0.4683544303797462  0.0000000000000000 Si
   0.9240506329113938  0.3670886075949360  0.0000000000000000 Si
   0.0379746835443053  0.3164556962025309  0.0000000000000000 Si
   0.1518987341772160  0.2658227848101260  0.0000000000000000 Si
   0.2658227848101276  0.2151898734177211  0.0000000000000000 Si
   0.3797468354430391  0.1645569620253160  0.0000000000000000 Si
   0.4936708860759507  0.1139240506329109  0.0000000000000000 Si
   0.6075949367088618  0.0632911392405058  0.0000000000000000 Si
   0.8101265822784822  0.4177215189873411  0.0000000000000000 Si
   0.1139240506329156  0.9493670886075929  0.0000000000000000 Si
