Si27
 1.000000
    -3.7500000000000000   10.8253175469999992    0.0000000000000000
   -11.2500000000000000   -6.4951905281999984    0.0000000000000000
     0.0000000000000000    0.0000000000000000   16.0000000000000000
Si
27
Direct
   0.0000000000000000  0.0000000000000000  0.0000000000000000 Si
   0.3333333333333330  0.8888888888888888  0.0000000000000000 Si
   0.1111111111111107  0.8518518518518519  0.0000000000000000 Si
   0.8888888888888884  0.8148148148148148  0.0000000000000000 Si
   0.6666666666666661  0.7777777777777777  0.0000000000000000 Si
   0.4444444444444446  0.7407407407407407  0.0000000000000000 Si
   0.2222222222222223  0.7037037037037037  0.0000000000000000 Si
   0.0000000000000000  0.6666666666666666  0.0000000000000000 Si
   0.7777777777777772  0.6296296296296295  0.0000000000000000 Si
   0.5555555555555554  0.5925925925925926  0.0000000000000000 Si
   0.3333333333333335  0.5555555555555556  0.0000000000000000 Si
   0.1111111111111107  0.5185185185185185  0.0000000000000000 Si
   0.5555555555555554  0.9259259259259258  0.0000000000000000 Si
   0.8888888888888888  0.4814814814814815  0.0000000000000000 Si
   0.4444444444444442  0.4074074074074074  0.0000000000000000 Si
   0.2222222222222223  0.3703703703703703  0.0000000000000000 Si
   0.0000000000000000  0.3333333333333333  0.0000000000000000 Si
   0.7777777777777777  0.2962962962962963  0.0000000000000000 Si
   0.5555555555555554  0.2592592592592592  0.0000000000000000 Si
   0.3333333333333333  0.2222222222222222  0.0000000000000000 Si
   0.1111111111111112  0.1851851851851852  0.0000000000000000 Si
   0.8888888888888888  0.1481481481481481  0.0000000000000000 Si
   0.6666666666666666  0.1111111111111111  0.0000000000000000 Si
   0.4444444444444444  0.0740740740740741  0.0000000000000000 Si
   0.2222222222222222  0.0370370370370370  0.0000000000000000 Si
   0.6666666666666665  0.4444444444444444  0.0000000000000000 Si
   0.7777777777777777  0.9629629629629629  0.0000000000000000 Si
