Si72
 1.000000
   -15.0000000000000000   12.9903810563999969   -0.0000000000000000
    20.0000000000000000    8.6602540375999695   -0.0000000000000000
    -0.0000000000000000   -0.0000000000000000  -16.0000000000000000
Si
72
Direct
   0.0000000000000000  0.0000000000000000  0.0000000000000000 Si
   0.9166666666666572  0.8749999999999969  0.0000000000000000 Si
   0.0555555555555456  0.9166666666666634  0.0000000000000000 Si
   0.1944444444444358  0.9583333333333304  0.0000000000000000 Si
   0.3333333333333242  0.9999999999999969  0.0000000000000000 Si
   0.4722222222222126  0.0416666666666634  0.0000000000000000 Si
   0.6111111111111027  0.0833333333333304  0.0000000000000000 Si
   0.7777777777777679  0.8333333333333299  0.0000000000000000 Si
   0.7499999999999911  0.1249999999999969  0.0000000000000000 Si
   0.0277777777777697  0.2083333333333304  0.0000000000000000 Si
   0.1666666666666590  0.2499999999999973  0.0000000000000000 Si
   0.3055555555555474  0.2916666666666639  0.0000000000000000 Si
   0.4444444444444366  0.3333333333333306  0.0000000000000000 Si
   0.5833333333333259  0.3749999999999976  0.0000000000000000 Si
   0.7222222222222143  0.4166666666666641  0.0000000000000000 Si
   0.8888888888888804  0.1666666666666639  0.0000000000000000 Si
   0.8611111111111045  0.4583333333333310  0.0000000000000000 Si
   0.6388888888888786  0.7916666666666634  0.0000000000000000 Si
   0.3611111111111009  0.7083333333333299  0.0000000000000000 Si
   0.4166666666666536  0.1249999999999956  0.0000000000000000 Si
   0.5555555555555429  0.1666666666666621  0.0000000000000000 Si
   0.6944444444444322  0.2083333333333290  0.0000000000000000 Si
   0.8333333333333215  0.2499999999999956  0.0000000000000000 Si
   0.9722222222222108  0.2916666666666625  0.0000000000000000 Si
   0.1111111111110983  0.3333333333333290  0.0000000000000000 Si
   0.4999999999999893  0.7499999999999964  0.0000000000000000 Si
   0.2499999999999876  0.3749999999999956  0.0000000000000000 Si
   0.5277777777777661  0.4583333333333290  0.0000000000000000 Si
   0.6666666666666554  0.4999999999999960  0.0000000000000000 Si
   0.8055555555555447  0.5416666666666625  0.0000000000000000 Si
   0.9444444444444340  0.5833333333333295  0.0000000000000000 Si
   0.0833333333333224  0.6249999999999964  0.0000000000000000 Si
   0.2222222222222126  0.6666666666666630  0.0000000000000000 Si
   0.3888888888888768  0.4166666666666625  0.0000000000000000 Si
   0.9999999999999929  0.4999999999999976  0.0000000000000000 Si
   0.1388888888888822  0.5416666666666643  0.0000000000000000 Si
   0.2777777777777715  0.5833333333333310  0.0000000000000000 Si
   0.0555555555555531  0.4166666666666657  0.0000000000000000 Si
   0.1944444444444420  0.4583333333333325  0.0000000000000000 Si
   0.3333333333333310  0.4999999999999992  0.0000000000000000 Si
   0.4722222222222201  0.5416666666666660  0.0000000000000000 Si
   0.6111111111111092  0.5833333333333326  0.0000000000000000 Si
   0.7499999999999982  0.6249999999999993  0.0000000000000000 Si
   0.9166666666666639  0.3749999999999990  0.0000000000000000 Si
   0.8888888888888873  0.6666666666666661  0.0000000000000000 Si
   0.1666666666666655  0.7499999999999996  0.0000000000000000 Si
   0.3055555555555546  0.7916666666666663  0.0000000000000000 Si
   0.4444444444444436  0.8333333333333330  0.0000000000000000 Si
   0.5833333333333328  0.8749999999999998  0.0000000000000000 Si
   0.7222222222222219  0.9166666666666665  0.0000000000000000 Si
   0.8611111111111109  0.9583333333333333  0.0000000000000000 Si
   0.0277777777777766  0.7083333333333328  0.0000000000000000 Si
   0.7777777777777746  0.3333333333333323  0.0000000000000000 Si
   0.6388888888888857  0.2916666666666655  0.0000000000000000 Si
   0.4999999999999964  0.2499999999999988  0.0000000000000000 Si
   0.4166666666666607  0.6249999999999978  0.0000000000000000 Si
   0.5555555555555491  0.6666666666666645  0.0000000000000000 Si
   0.6944444444444384  0.7083333333333313  0.0000000000000000 Si
   0.8333333333333277  0.7499999999999980  0.0000000000000000 Si
   0.9722222222222170  0.7916666666666647  0.0000000000000000 Si
   0.1111111111111063  0.8333333333333315  0.0000000000000000 Si
   0.2499999999999947  0.8749999999999982  0.0000000000000000 Si
   0.3888888888888840  0.9166666666666650  0.0000000000000000 Si
   0.5277777777777728  0.9583333333333317  0.0000000000000000 Si
   0.6666666666666621  0.9999999999999984  0.0000000000000000 Si
   0.8055555555555514  0.0416666666666652  0.0000000000000000 Si
   0.9444444444444402  0.0833333333333319  0.0000000000000000 Si
   0.0833333333333295  0.1249999999999987  0.0000000000000000 Si
   0.2222222222222183  0.1666666666666653  0.0000000000000000 Si
   0.3611111111111072  0.2083333333333320  0.0000000000000000 Si
   0.2777777777777644  0.0833333333333286  0.0000000000000000 Si
   0.1388888888888751  0.0416666666666621  0.0000000000000000 Si
