Si72
 1.000000
   -17.5000000000000000    8.6602540375999979   -0.0000000000000000
    10.0000000000000000   17.3205080752000242   -0.0000000000000000
    -0.0000000000000000   -0.0000000000000000  -16.0000000000000000
Si
72
Direct
   0.0000000000000000  0.0000000000000000  0.0000000000000000 Si
   0.3333333333333339  0.4583333333333339  0.0000000000000000 Si
   0.4444444444444446  0.5277777777777777  0.0000000000000000 Si
   0.5555555555555562  0.5972222222222228  0.0000000000000000 Si
   0.6666666666666670  0.6666666666666670  0.0000000000000000 Si
   0.7777777777777777  0.7361111111111112  0.0000000000000000 Si
   0.8888888888888893  0.8055555555555558  0.0000000000000000 Si
   0.2222222222222223  0.3888888888888888  0.0000000000000000 Si
   0.0000000000000000  0.8750000000000000  0.0000000000000000 Si
   0.2222222222222223  0.0138888888888888  0.0000000000000000 Si
   0.3333333333333339  0.0833333333333339  0.0000000000000000 Si
   0.4444444444444446  0.1527777777777777  0.0000000000000000 Si
   0.5555555555555554  0.2222222222222223  0.0000000000000000 Si
   0.6666666666666670  0.2916666666666670  0.0000000000000000 Si
   0.7777777777777777  0.3611111111111112  0.0000000000000000 Si
   0.1111111111111116  0.9444444444444446  0.0000000000000000 Si
   0.8888888888888893  0.4305555555555558  0.0000000000000000 Si
   0.1111111111111116  0.3194444444444446  0.0000000000000000 Si
   0.8888888888888893  0.1805555555555558  0.0000000000000000 Si
   0.3333333333333339  0.2083333333333339  0.0000000000000000 Si
   0.4444444444444446  0.2777777777777777  0.0000000000000000 Si
   0.5555555555555562  0.3472222222222223  0.0000000000000000 Si
   0.6666666666666670  0.4166666666666670  0.0000000000000000 Si
   0.7777777777777786  0.4861111111111116  0.0000000000000000 Si
   0.8888888888888893  0.5555555555555554  0.0000000000000000 Si
   0.0000000000000000  0.2500000000000000  0.0000000000000000 Si
   0.0000000000000000  0.6250000000000000  0.0000000000000000 Si
   0.2222222222222223  0.7638888888888893  0.0000000000000000 Si
   0.3333333333333339  0.8333333333333339  0.0000000000000000 Si
   0.4444444444444446  0.9027777777777777  0.0000000000000000 Si
   0.5555555555555562  0.9722222222222223  0.0000000000000000 Si
   0.6666666666666670  0.0416666666666670  0.0000000000000000 Si
   0.7777777777777786  0.1111111111111116  0.0000000000000000 Si
   0.1111111111111116  0.6944444444444446  0.0000000000000000 Si
   0.0000000000000000  0.5000000000000000  0.0000000000000000 Si
   0.1111111111111112  0.5694444444444446  0.0000000000000000 Si
   0.2222222222222223  0.6388888888888888  0.0000000000000000 Si
   0.4444444444444446  0.0277777777777779  0.0000000000000000 Si
   0.5555555555555556  0.0972222222222222  0.0000000000000000 Si
   0.6666666666666667  0.1666666666666667  0.0000000000000000 Si
   0.7777777777777779  0.2361111111111112  0.0000000000000000 Si
   0.8888888888888888  0.3055555555555556  0.0000000000000000 Si
   0.0000000000000000  0.3750000000000000  0.0000000000000000 Si
   0.3333333333333335  0.9583333333333335  0.0000000000000000 Si
   0.1111111111111112  0.4444444444444444  0.0000000000000000 Si
   0.3333333333333334  0.5833333333333334  0.0000000000000000 Si
   0.4444444444444444  0.6527777777777778  0.0000000000000000 Si
   0.5555555555555556  0.7222222222222222  0.0000000000000000 Si
   0.6666666666666667  0.7916666666666667  0.0000000000000000 Si
   0.7777777777777778  0.8611111111111112  0.0000000000000000 Si
   0.8888888888888888  0.9305555555555556  0.0000000000000000 Si
   0.2222222222222223  0.5138888888888890  0.0000000000000000 Si
   0.2222222222222223  0.8888888888888888  0.0000000000000000 Si
   0.1111111111111112  0.8194444444444444  0.0000000000000000 Si
   0.0000000000000000  0.7500000000000000  0.0000000000000000 Si
   0.3333333333333335  0.7083333333333335  0.0000000000000000 Si
   0.4444444444444446  0.7777777777777777  0.0000000000000000 Si
   0.5555555555555558  0.8472222222222223  0.0000000000000000 Si
   0.6666666666666670  0.9166666666666670  0.0000000000000000 Si
   0.7777777777777781  0.9861111111111112  0.0000000000000000 Si
   0.8888888888888893  0.0555555555555558  0.0000000000000000 Si
   0.0000000000000000  0.1250000000000000  0.0000000000000000 Si
   0.1111111111111112  0.1944444444444444  0.0000000000000000 Si
   0.2222222222222223  0.2638888888888888  0.0000000000000000 Si
   0.3333333333333335  0.3333333333333335  0.0000000000000000 Si
   0.4444444444444446  0.4027777777777779  0.0000000000000000 Si
   0.5555555555555558  0.4722222222222223  0.0000000000000000 Si
   0.6666666666666670  0.5416666666666670  0.0000000000000000 Si
   0.7777777777777777  0.6111111111111112  0.0000000000000000 Si
   0.8888888888888888  0.6805555555555556  0.0000000000000000 Si
   0.2222222222222223  0.1388888888888893  0.0000000000000000 Si
   0.1111111111111116  0.0694444444444446  0.0000000000000000 Si
