Si72
 1.000000
    -0.0000000000000000  -17.3205080751999958   -0.0000000000000000
   -22.5000000000000000    8.6602540375999979   -0.0000000000000000
    -0.0000000000000000   -0.0000000000000000  -16.0000000000000000
Si
72
Direct
   0.0000000000000000  0.0000000000000000  0.0000000000000000 Si
   0.9583333333333357  0.1666666666666656  0.0000000000000000 Si
   0.8611111111111134  0.2222222222222210  0.0000000000000000 Si
   0.7638888888888911  0.2777777777777768  0.0000000000000000 Si
   0.6666666666666687  0.3333333333333321  0.0000000000000000 Si
   0.5694444444444464  0.3888888888888875  0.0000000000000000 Si
   0.4722222222222241  0.4444444444444433  0.0000000000000000 Si
   0.0555555555555580  0.1111111111111098  0.0000000000000000 Si
   0.3750000000000018  0.4999999999999991  0.0000000000000000 Si
   0.1805555555555580  0.6111111111111103  0.0000000000000000 Si
   0.0833333333333348  0.6666666666666661  0.0000000000000000 Si
   0.9861111111111129  0.7222222222222214  0.0000000000000000 Si
   0.8888888888888911  0.7777777777777768  0.0000000000000000 Si
   0.7916666666666683  0.8333333333333326  0.0000000000000000 Si
   0.6944444444444464  0.8888888888888880  0.0000000000000000 Si
   0.2777777777777795  0.5555555555555549  0.0000000000000000 Si
   0.5972222222222237  0.9444444444444438  0.0000000000000000 Si
   0.1527777777777803  0.0555555555555545  0.0000000000000000 Si
   0.3472222222222250  0.9444444444444433  0.0000000000000000 Si
   0.7083333333333366  0.1666666666666652  0.0000000000000000 Si
   0.6111111111111143  0.2222222222222205  0.0000000000000000 Si
   0.5138888888888919  0.2777777777777763  0.0000000000000000 Si
   0.4166666666666696  0.3333333333333317  0.0000000000000000 Si
   0.3194444444444473  0.3888888888888875  0.0000000000000000 Si
   0.2222222222222250  0.4444444444444429  0.0000000000000000 Si
   0.2500000000000027  0.9999999999999987  0.0000000000000000 Si
   0.1250000000000036  0.4999999999999982  0.0000000000000000 Si
   0.9305555555555589  0.6111111111111098  0.0000000000000000 Si
   0.8333333333333357  0.6666666666666656  0.0000000000000000 Si
   0.7361111111111143  0.7222222222222210  0.0000000000000000 Si
   0.6388888888888911  0.7777777777777768  0.0000000000000000 Si
   0.5416666666666696  0.8333333333333321  0.0000000000000000 Si
   0.4444444444444464  0.8888888888888880  0.0000000000000000 Si
   0.0277777777777803  0.5555555555555545  0.0000000000000000 Si
   0.5000000000000018  0.9999999999999991  0.0000000000000000 Si
   0.4027777777777795  0.0555555555555547  0.0000000000000000 Si
   0.3055555555555571  0.1111111111111103  0.0000000000000000 Si
   0.3611111111111116  0.2222222222222220  0.0000000000000000 Si
   0.2638888888888895  0.2777777777777775  0.0000000000000000 Si
   0.1666666666666672  0.3333333333333330  0.0000000000000000 Si
   0.0694444444444449  0.3888888888888887  0.0000000000000000 Si
   0.9722222222222228  0.4444444444444442  0.0000000000000000 Si
   0.8750000000000004  0.4999999999999998  0.0000000000000000 Si
   0.4583333333333339  0.1666666666666664  0.0000000000000000 Si
   0.7777777777777781  0.5555555555555554  0.0000000000000000 Si
   0.5833333333333336  0.6666666666666665  0.0000000000000000 Si
   0.4861111111111114  0.7222222222222221  0.0000000000000000 Si
   0.3888888888888891  0.7777777777777777  0.0000000000000000 Si
   0.2916666666666668  0.8333333333333333  0.0000000000000000 Si
   0.1944444444444445  0.8888888888888888  0.0000000000000000 Si
   0.0972222222222223  0.9444444444444444  0.0000000000000000 Si
   0.6805555555555558  0.6111111111111109  0.0000000000000000 Si
   0.5555555555555562  0.1111111111111107  0.0000000000000000 Si
   0.6527777777777786  0.0555555555555551  0.0000000000000000 Si
   0.7500000000000009  0.9999999999999996  0.0000000000000000 Si
   0.2083333333333348  0.1666666666666659  0.0000000000000000 Si
   0.1111111111111125  0.2222222222222214  0.0000000000000000 Si
   0.0138888888888902  0.2777777777777772  0.0000000000000000 Si
   0.9166666666666679  0.3333333333333328  0.0000000000000000 Si
   0.8194444444444455  0.3888888888888884  0.0000000000000000 Si
   0.7222222222222232  0.4444444444444440  0.0000000000000000 Si
   0.6250000000000013  0.4999999999999993  0.0000000000000000 Si
   0.5277777777777790  0.5555555555555549  0.0000000000000000 Si
   0.4305555555555567  0.6111111111111105  0.0000000000000000 Si
   0.3333333333333344  0.6666666666666661  0.0000000000000000 Si
   0.2361111111111120  0.7222222222222217  0.0000000000000000 Si
   0.1388888888888897  0.7777777777777775  0.0000000000000000 Si
   0.0416666666666674  0.8333333333333330  0.0000000000000000 Si
   0.9444444444444455  0.8888888888888884  0.0000000000000000 Si
   0.8472222222222232  0.9444444444444440  0.0000000000000000 Si
   0.8055555555555589  0.1111111111111094  0.0000000000000000 Si
   0.9027777777777812  0.0555555555555540  0.0000000000000000 Si
