Si90
 1.000000
   -12.5000000000000000   -0.0000000000000000   -0.0000000000000000
     5.0000000000000000   38.9711431691999906   -0.0000000000000000
    -0.0000000000000000   -0.0000000000000000  -16.0000000000000000
Si
90
Direct
   0.0000000000000000  0.0000000000000000  0.0000000000000000 Si
   0.1777777777777700  0.4444444444444406  0.0000000000000000 Si
   0.2999999999999918  0.4999999999999960  0.0000000000000000 Si
   0.4222222222222145  0.5555555555555518  0.0000000000000000 Si
   0.5444444444444372  0.6111111111111072  0.0000000000000000 Si
   0.6666666666666590  0.6666666666666625  0.0000000000000000 Si
   0.7888888888888816  0.7222222222222188  0.0000000000000000 Si
   0.9111111111111034  0.7777777777777741  0.0000000000000000 Si
   0.0333333333333270  0.8333333333333299  0.0000000000000000 Si
   0.0555555555555483  0.3888888888888853  0.0000000000000000 Si
   0.1555555555555488  0.8888888888888857  0.0000000000000000 Si
   0.3999999999999941  0.9999999999999969  0.0000000000000000 Si
   0.5222222222222159  0.0555555555555522  0.0000000000000000 Si
   0.6444444444444377  0.1111111111111076  0.0000000000000000 Si
   0.7666666666666604  0.1666666666666639  0.0000000000000000 Si
   0.8888888888888831  0.2222222222222192  0.0000000000000000 Si
   0.0111111111111049  0.2777777777777746  0.0000000000000000 Si
   0.1333333333333275  0.3333333333333304  0.0000000000000000 Si
   0.2555555555555493  0.3888888888888857  0.0000000000000000 Si
   0.2777777777777706  0.9444444444444411  0.0000000000000000 Si
   0.9333333333333247  0.3333333333333290  0.0000000000000000 Si
   0.8111111111111029  0.2777777777777737  0.0000000000000000 Si
   0.6888888888888811  0.2222222222222183  0.0000000000000000 Si
   0.3666666666666565  0.1666666666666616  0.0000000000000000 Si
   0.4888888888888783  0.2222222222222170  0.0000000000000000 Si
   0.6111111111111001  0.2777777777777724  0.0000000000000000 Si
   0.7333333333333236  0.3333333333333286  0.0000000000000000 Si
   0.8555555555555454  0.3888888888888840  0.0000000000000000 Si
   0.9777777777777690  0.4444444444444393  0.0000000000000000 Si
   0.0999999999999908  0.4999999999999947  0.0000000000000000 Si
   0.2222222222222126  0.5555555555555509  0.0000000000000000 Si
   0.3444444444444343  0.6111111111111063  0.0000000000000000 Si
   0.4666666666666579  0.6666666666666616  0.0000000000000000 Si
   0.5888888888888797  0.7222222222222170  0.0000000000000000 Si
   0.7111111111111015  0.7777777777777732  0.0000000000000000 Si
   0.8333333333333233  0.8333333333333286  0.0000000000000000 Si
   0.9555555555555468  0.8888888888888840  0.0000000000000000 Si
   0.0777777777777686  0.9444444444444402  0.0000000000000000 Si
   0.1999999999999904  0.9999999999999956  0.0000000000000000 Si
   0.3222222222222122  0.0555555555555509  0.0000000000000000 Si
   0.4444444444444358  0.1111111111111067  0.0000000000000000 Si
   0.5666666666666575  0.1666666666666625  0.0000000000000000 Si
   0.3777777777777711  0.4444444444444415  0.0000000000000000 Si
   0.4999999999999947  0.4999999999999973  0.0000000000000000 Si
   0.6222222222222165  0.5555555555555527  0.0000000000000000 Si
   0.7444444444444391  0.6111111111111085  0.0000000000000000 Si
   0.6777777777777754  0.9444444444444433  0.0000000000000000 Si
   0.7999999999999976  0.9999999999999989  0.0000000000000000 Si
   0.9222222222222203  0.0555555555555546  0.0000000000000000 Si
   0.0444444444444425  0.1111111111111102  0.0000000000000000 Si
   0.1666666666666647  0.1666666666666656  0.0000000000000000 Si
   0.2888888888888872  0.2222222222222214  0.0000000000000000 Si
   0.4111111111111094  0.2777777777777769  0.0000000000000000 Si
   0.5333333333333319  0.3333333333333326  0.0000000000000000 Si
   0.6555555555555541  0.3888888888888882  0.0000000000000000 Si
   0.7777777777777766  0.4444444444444439  0.0000000000000000 Si
   0.8999999999999988  0.4999999999999994  0.0000000000000000 Si
   0.0222222222222213  0.5555555555555551  0.0000000000000000 Si
   0.1444444444444436  0.6111111111111107  0.0000000000000000 Si
   0.2666666666666659  0.6666666666666663  0.0000000000000000 Si
   0.3888888888888883  0.7222222222222219  0.0000000000000000 Si
   0.5111111111111106  0.7777777777777776  0.0000000000000000 Si
   0.6333333333333330  0.8333333333333331  0.0000000000000000 Si
   0.7555555555555553  0.8888888888888887  0.0000000000000000 Si
   0.8777777777777777  0.9444444444444444  0.0000000000000000 Si
   0.5555555555555531  0.8888888888888877  0.0000000000000000 Si
   0.2444444444444329  0.1111111111111054  0.0000000000000000 Si
   0.4333333333333309  0.8333333333333321  0.0000000000000000 Si
   0.1888888888888856  0.7222222222222208  0.0000000000000000 Si
   0.8666666666666618  0.6666666666666643  0.0000000000000000 Si
   0.9888888888888845  0.7222222222222197  0.0000000000000000 Si
   0.1111111111111063  0.7777777777777755  0.0000000000000000 Si
   0.2333333333333290  0.8333333333333308  0.0000000000000000 Si
   0.3555555555555507  0.8888888888888866  0.0000000000000000 Si
   0.4777777777777734  0.9444444444444420  0.0000000000000000 Si
   0.5999999999999952  0.9999999999999978  0.0000000000000000 Si
   0.7222222222222179  0.0555555555555534  0.0000000000000000 Si
   0.8444444444444406  0.1111111111111092  0.0000000000000000 Si
   0.9666666666666623  0.1666666666666645  0.0000000000000000 Si
   0.0888888888888850  0.2222222222222203  0.0000000000000000 Si
   0.2111111111111073  0.2777777777777759  0.0000000000000000 Si
   0.3333333333333295  0.3333333333333313  0.0000000000000000 Si
   0.4555555555555517  0.3888888888888871  0.0000000000000000 Si
   0.5777777777777744  0.4444444444444429  0.0000000000000000 Si
   0.6999999999999971  0.4999999999999984  0.0000000000000000 Si
   0.8222222222222189  0.5555555555555538  0.0000000000000000 Si
   0.9444444444444415  0.6111111111111096  0.0000000000000000 Si
   0.0666666666666638  0.6666666666666652  0.0000000000000000 Si
   0.3111111111111082  0.7777777777777763  0.0000000000000000 Si
   0.1222222222222111  0.0555555555555500  0.0000000000000000 Si
