Si93
 1.000000
     2.5000000000000000   -8.6602540375999997   -0.0000000000000000
   -53.7500000000000000  -15.1554445658000247   -0.0000000000000000
    -0.0000000000000000   -0.0000000000000000  -16.0000000000000000
Si
93
Direct
   0.0000000000000000  0.0000000000000000  0.0000000000000000 Si
   0.7419354838709680  0.2903225806451613  0.0000000000000000 Si
   0.4731182795698921  0.3010752688172043  0.0000000000000000 Si
   0.2043010752688197  0.3118279569892473  0.0000000000000000 Si
   0.9354838709677438  0.3225806451612903  0.0000000000000000 Si
   0.6666666666666679  0.3333333333333333  0.0000000000000000 Si
   0.3978494623655919  0.3440860215053763  0.0000000000000000 Si
   0.1290322580645196  0.3548387096774193  0.0000000000000000 Si
   0.8602150537634436  0.3655913978494623  0.0000000000000000 Si
   0.5913978494623660  0.3763440860215054  0.0000000000000000 Si
   0.3225806451612900  0.3870967741935484  0.0000000000000000 Si
   0.0537634408602159  0.3978494623655914  0.0000000000000000 Si
   0.7849462365591400  0.4086021505376344  0.0000000000000000 Si
   0.5161290322580658  0.4193548387096774  0.0000000000000000 Si
   0.2473118279569899  0.4301075268817204  0.0000000000000000 Si
   0.9784946236559158  0.4408602150537634  0.0000000000000000 Si
   0.7096774193548399  0.4516129032258064  0.0000000000000000 Si
   0.4408602150537657  0.4623655913978494  0.0000000000000000 Si
   0.1720430107526898  0.4731182795698924  0.0000000000000000 Si
   0.9032258064516121  0.4838709677419355  0.0000000000000000 Si
   0.0107526881720439  0.2795698924731183  0.0000000000000000 Si
   0.2795698924731198  0.2688172043010753  0.0000000000000000 Si
   0.5483870967741922  0.2580645161290323  0.0000000000000000 Si
   0.8172043010752716  0.2473118279569891  0.0000000000000000 Si
   0.1935483870967758  0.0322580645161290  0.0000000000000000 Si
   0.9247311827956999  0.0430107526881720  0.0000000000000000 Si
   0.6559139784946240  0.0537634408602150  0.0000000000000000 Si
   0.3870967741935516  0.0645161290322580  0.0000000000000000 Si
   0.1182795698924757  0.0752688172043010  0.0000000000000000 Si
   0.8494623655913998  0.0860215053763440  0.0000000000000000 Si
   0.5806451612903238  0.0967741935483870  0.0000000000000000 Si
   0.3118279569892479  0.1075268817204300  0.0000000000000000 Si
   0.0430107526881756  0.1182795698924730  0.0000000000000000 Si
   0.6344086021505380  0.4946236559139785  0.0000000000000000 Si
   0.7741935483870996  0.1290322580645160  0.0000000000000000 Si
   0.2365591397849478  0.1505376344086021  0.0000000000000000 Si
   0.9677419354838719  0.1612903225806451  0.0000000000000000 Si
   0.6989247311827960  0.1720430107526881  0.0000000000000000 Si
   0.4301075268817200  0.1827956989247311  0.0000000000000000 Si
   0.1612903225806477  0.1935483870967741  0.0000000000000000 Si
   0.8924731182795718  0.2043010752688171  0.0000000000000000 Si
   0.6236559139784958  0.2150537634408601  0.0000000000000000 Si
   0.3548387096774199  0.2258064516129031  0.0000000000000000 Si
   0.0860215053763476  0.2365591397849461  0.0000000000000000 Si
   0.5053763440860237  0.1397849462365590  0.0000000000000000 Si
   0.4623655913978517  0.0215053763440859  0.0000000000000000 Si
   0.3655913978494638  0.5053763440860215  0.0000000000000000 Si
   0.8279569892473120  0.5268817204301075  0.0000000000000000 Si
   0.1075268817204300  0.7956989247311828  0.0000000000000000 Si
   0.8387096774193550  0.8064516129032258  0.0000000000000000 Si
   0.5698924731182800  0.8172043010752688  0.0000000000000000 Si
   0.3010752688172049  0.8279569892473118  0.0000000000000000 Si
   0.0322580645161299  0.8387096774193548  0.0000000000000000 Si
   0.7634408602150540  0.8494623655913979  0.0000000000000000 Si
   0.4946236559139789  0.8602150537634409  0.0000000000000000 Si
   0.2258064516129030  0.8709677419354839  0.0000000000000000 Si
   0.9569892473118280  0.8817204301075269  0.0000000000000000 Si
   0.6881720430107530  0.8924731182795699  0.0000000000000000 Si
   0.4193548387096775  0.9032258064516129  0.0000000000000000 Si
   0.1505376344086025  0.9139784946236559  0.0000000000000000 Si
   0.8817204301075270  0.9247311827956989  0.0000000000000000 Si
   0.6129032258064515  0.9354838709677420  0.0000000000000000 Si
   0.3440860215053765  0.9462365591397850  0.0000000000000000 Si
   0.0752688172043012  0.9569892473118280  0.0000000000000000 Si
   0.8064516129032258  0.9677419354838710  0.0000000000000000 Si
   0.5376344086021506  0.9784946236559140  0.0000000000000000 Si
   0.2688172043010753  0.9892473118279570  0.0000000000000000 Si
   0.3763440860215059  0.7849462365591398  0.0000000000000000 Si
   0.6451612903225810  0.7741935483870968  0.0000000000000000 Si
   0.9139784946236560  0.7634408602150538  0.0000000000000000 Si
   0.1827956989247319  0.7526881720430108  0.0000000000000000 Si
   0.5591397849462378  0.5376344086021505  0.0000000000000000 Si
   0.2903225806451619  0.5483870967741935  0.0000000000000000 Si
   0.0215053763440878  0.5591397849462365  0.0000000000000000 Si
   0.7526881720430119  0.5698924731182795  0.0000000000000000 Si
   0.4838709677419359  0.5806451612903225  0.0000000000000000 Si
   0.2150537634408600  0.5913978494623655  0.0000000000000000 Si
   0.9462365591397859  0.6021505376344085  0.0000000000000000 Si
   0.6774193548387100  0.6129032258064515  0.0000000000000000 Si
   0.4086021505376358  0.6236559139784945  0.0000000000000000 Si
   0.0967741935483879  0.5161290322580645  0.0000000000000000 Si
   0.1397849462365599  0.6344086021505376  0.0000000000000000 Si
   0.6021505376344098  0.6559139784946236  0.0000000000000000 Si
   0.3333333333333339  0.6666666666666666  0.0000000000000000 Si
   0.0645161290322598  0.6774193548387096  0.0000000000000000 Si
   0.7956989247311830  0.6881720430107527  0.0000000000000000 Si
   0.5268817204301079  0.6989247311827957  0.0000000000000000 Si
   0.2580645161290329  0.7096774193548387  0.0000000000000000 Si
   0.9892473118279579  0.7204301075268817  0.0000000000000000 Si
   0.7204301075268829  0.7311827956989247  0.0000000000000000 Si
   0.4516129032258061  0.7419354838709677  0.0000000000000000 Si
   0.8709677419354840  0.6451612903225806  0.0000000000000000 Si
   0.7311827956989276  0.0107526881720429  0.0000000000000000 Si
