Si34
 1.000000
     1.2500000000000000   -6.4951905282000002   -0.0000000000000000
   -27.5000000000000000   -4.3301270188000132   -0.0000000000000000
    -0.0000000000000000   -0.0000000000000000  -16.0000000000000000
Si
34
Direct
   0.0000000000000000  0.0000000000000000  0.0000000000000000 Si
   0.9411764705882355  0.0882352941176471  0.0000000000000000 Si
   0.5882352941176467  0.1176470588235294  0.0000000000000000 Si
   0.2352941176470580  0.1470588235294118  0.0000000000000000 Si
   0.8823529411764710  0.1764705882352942  0.0000000000000000 Si
   0.5294117647058822  0.2058823529411765  0.0000000000000000 Si
   0.1764705882352935  0.2352941176470589  0.0000000000000000 Si
   0.8235294117647047  0.2647058823529412  0.0000000000000000 Si
   0.4705882352941160  0.2941176470588236  0.0000000000000000 Si
   0.1176470588235290  0.3235294117647058  0.0000000000000000 Si
   0.7647058823529420  0.3529411764705882  0.0000000000000000 Si
   0.4117647058823533  0.3823529411764706  0.0000000000000000 Si
   0.0588235294117645  0.4117647058823529  0.0000000000000000 Si
   0.7058823529411766  0.4411764705882353  0.0000000000000000 Si
   0.3529411764705888  0.4705882352941176  0.0000000000000000 Si
   0.0000000000000000  0.5000000000000000  0.0000000000000000 Si
   0.6470588235294112  0.5294117647058824  0.0000000000000000 Si
   0.2941176470588234  0.5588235294117647  0.0000000000000000 Si
   0.3529411764705882  0.9705882352941176  0.0000000000000000 Si
   0.7058823529411764  0.9411764705882353  0.0000000000000000 Si
   0.0588235294117645  0.9117647058823529  0.0000000000000000 Si
   0.4117647058823528  0.8823529411764706  0.0000000000000000 Si
   0.7647058823529411  0.8529411764705882  0.0000000000000000 Si
   0.1176470588235290  0.8235294117647058  0.0000000000000000 Si
   0.2941176470588225  0.0588235294117647  0.0000000000000000 Si
   0.4705882352941178  0.7941176470588236  0.0000000000000000 Si
   0.1764705882352944  0.7352941176470589  0.0000000000000000 Si
   0.5294117647058822  0.7058823529411764  0.0000000000000000 Si
   0.8823529411764710  0.6764705882352942  0.0000000000000000 Si
   0.2352941176470580  0.6470588235294118  0.0000000000000000 Si
   0.5882352941176467  0.6176470588235294  0.0000000000000000 Si
   0.9411764705882355  0.5882352941176471  0.0000000000000000 Si
   0.8235294117647056  0.7647058823529411  0.0000000000000000 Si
   0.6470588235294112  0.0294117647058824  0.0000000000000000 Si
