Si36
 1.000000
     5.0000000000000000  -12.9903810564000004   -0.0000000000000000
   -15.0000000000000000   -0.0000000000000142   -0.0000000000000000
    -0.0000000000000000   -0.0000000000000000  -16.0000000000000000
Si
36
Direct
   0.0000000000000000  0.0000000000000000  0.0000000000000000 Si
   0.3333333333333335  0.4444444444444444  0.0000000000000000 Si
   0.4999999999999996  0.4166666666666667  0.0000000000000000 Si
   0.6666666666666661  0.3888888888888890  0.0000000000000000 Si
   0.8333333333333330  0.3611111111111112  0.0000000000000000 Si
   0.0000000000000000  0.3333333333333334  0.0000000000000000 Si
   0.1666666666666661  0.3055555555555556  0.0000000000000000 Si
   0.1666666666666670  0.4722222222222222  0.0000000000000000 Si
   0.3333333333333330  0.2777777777777778  0.0000000000000000 Si
   0.6666666666666661  0.2222222222222223  0.0000000000000000 Si
   0.8333333333333330  0.1944444444444445  0.0000000000000000 Si
   0.0000000000000000  0.1666666666666667  0.0000000000000000 Si
   0.1666666666666661  0.1388888888888890  0.0000000000000000 Si
   0.3333333333333330  0.1111111111111112  0.0000000000000000 Si
   0.5000000000000000  0.0833333333333334  0.0000000000000000 Si
   0.5000000000000000  0.2500000000000000  0.0000000000000000 Si
   0.0000000000000000  0.5000000000000000  0.0000000000000000 Si
   0.8333333333333330  0.5277777777777778  0.0000000000000000 Si
   0.6666666666666665  0.5555555555555556  0.0000000000000000 Si
   0.1666666666666667  0.9722222222222222  0.0000000000000000 Si
   0.3333333333333333  0.9444444444444444  0.0000000000000000 Si
   0.5000000000000000  0.9166666666666666  0.0000000000000000 Si
   0.6666666666666666  0.8888888888888888  0.0000000000000000 Si
   0.8333333333333334  0.8611111111111112  0.0000000000000000 Si
   0.0000000000000000  0.8333333333333334  0.0000000000000000 Si
   0.1666666666666665  0.8055555555555556  0.0000000000000000 Si
   0.3333333333333333  0.7777777777777778  0.0000000000000000 Si
   0.5000000000000000  0.7500000000000000  0.0000000000000000 Si
   0.6666666666666667  0.7222222222222222  0.0000000000000000 Si
   0.8333333333333330  0.6944444444444444  0.0000000000000000 Si
   0.0000000000000000  0.6666666666666667  0.0000000000000000 Si
   0.1666666666666665  0.6388888888888888  0.0000000000000000 Si
   0.3333333333333330  0.6111111111111112  0.0000000000000000 Si
   0.5000000000000000  0.5833333333333334  0.0000000000000000 Si
   0.6666666666666661  0.0555555555555556  0.0000000000000000 Si
   0.8333333333333330  0.0277777777777778  0.0000000000000000 Si
