Si73
 1.000000
     2.5000000000000000    0.0000000000000000    0.0000000000000000
    -1.2500000000000000  158.0496361861999901    0.0000000000000000
     0.0000000000000000    0.0000000000000000   16.0000000000000000
Si
73
Direct
   0.0000000000000000  0.0000000000000000  0.0000000000000000 Si
   0.8493150684931550  0.6986301369863013  0.0000000000000000 Si
   0.3424657534246585  0.6849315068493150  0.0000000000000000 Si
   0.8356164383561620  0.6712328767123288  0.0000000000000000 Si
   0.3287671232876725  0.6575342465753424  0.0000000000000000 Si
   0.8219178082191831  0.6438356164383561  0.0000000000000000 Si
   0.3150684931506866  0.6301369863013698  0.0000000000000000 Si
   0.3561643835616444  0.7123287671232876  0.0000000000000000 Si
   0.8082191780821901  0.6164383561643836  0.0000000000000000 Si
   0.7945205479452078  0.5890410958904109  0.0000000000000000 Si
   0.2876712328767148  0.5753424657534246  0.0000000000000000 Si
   0.7808219178082183  0.5616438356164384  0.0000000000000000 Si
   0.2739726027397253  0.5479452054794520  0.0000000000000000 Si
   0.7671232876712359  0.5342465753424657  0.0000000000000000 Si
   0.2602739726027394  0.5205479452054794  0.0000000000000000 Si
   0.3013698630137007  0.6027397260273972  0.0000000000000000 Si
   0.8630136986301373  0.7260273972602740  0.0000000000000000 Si
   0.3698630136986303  0.7397260273972602  0.0000000000000000 Si
   0.8767123287671268  0.7534246575342465  0.0000000000000000 Si
   0.4794520547945211  0.9589041095890410  0.0000000000000000 Si
   0.9726027397260282  0.9452054794520548  0.0000000000000000 Si
   0.4657534246575352  0.9315068493150684  0.0000000000000000 Si
   0.9589041095890423  0.9178082191780821  0.0000000000000000 Si
   0.4520547945205493  0.9041095890410958  0.0000000000000000 Si
   0.9452054794520564  0.8904109589041096  0.0000000000000000 Si
   0.4383561643835634  0.8767123287671232  0.0000000000000000 Si
   0.9315068493150704  0.8630136986301369  0.0000000000000000 Si
   0.4246575342465775  0.8493150684931506  0.0000000000000000 Si
   0.9178082191780810  0.8356164383561644  0.0000000000000000 Si
   0.4109589041095916  0.8219178082191780  0.0000000000000000 Si
   0.9041095890410986  0.8082191780821917  0.0000000000000000 Si
   0.3972602739726057  0.7945205479452054  0.0000000000000000 Si
   0.8904109589041092  0.7808219178082192  0.0000000000000000 Si
   0.3835616438356197  0.7671232876712328  0.0000000000000000 Si
   0.7534246575342465  0.5068493150684932  0.0000000000000000 Si
   0.9863013698630141  0.9726027397260273  0.0000000000000000 Si
   0.2465753424657535  0.4931506849315068  0.0000000000000000 Si
   0.2328767123287676  0.4657534246575342  0.0000000000000000 Si
   0.0958904109589049  0.1917808219178082  0.0000000000000000 Si
   0.5890410958904111  0.1780821917808219  0.0000000000000000 Si
   0.0821917808219181  0.1643835616438356  0.0000000000000000 Si
   0.5753424657534252  0.1506849315068493  0.0000000000000000 Si
   0.0684931506849313  0.1369863013698630  0.0000000000000000 Si
   0.5616438356164384  0.1232876712328767  0.0000000000000000 Si
   0.6027397260273979  0.2054794520547945  0.0000000000000000 Si
   0.0547945205479454  0.1095890410958904  0.0000000000000000 Si
   0.0410958904109591  0.0821917808219178  0.0000000000000000 Si
   0.5342465753424657  0.0684931506849315  0.0000000000000000 Si
   0.0273972602739727  0.0547945205479452  0.0000000000000000 Si
   0.5205479452054795  0.0410958904109589  0.0000000000000000 Si
   0.0136986301369864  0.0273972602739726  0.0000000000000000 Si
   0.5068493150684932  0.0136986301369863  0.0000000000000000 Si
   0.5479452054794525  0.0958904109589041  0.0000000000000000 Si
   0.1095890410958908  0.2191780821917808  0.0000000000000000 Si
   0.6164383561643838  0.2328767123287671  0.0000000000000000 Si
   0.1232876712328768  0.2465753424657534  0.0000000000000000 Si
   0.7260273972602747  0.4520547945205479  0.0000000000000000 Si
   0.2191780821917817  0.4383561643835616  0.0000000000000000 Si
   0.7123287671232887  0.4246575342465753  0.0000000000000000 Si
   0.2054794520547958  0.4109589041095890  0.0000000000000000 Si
   0.6986301369863028  0.3972602739726027  0.0000000000000000 Si
   0.1917808219178099  0.3835616438356164  0.0000000000000000 Si
   0.6849315068493151  0.3698630136986301  0.0000000000000000 Si
   0.1780821917808222  0.3561643835616438  0.0000000000000000 Si
   0.6712328767123292  0.3424657534246575  0.0000000000000000 Si
   0.1643835616438363  0.3287671232876712  0.0000000000000000 Si
   0.6575342465753433  0.3150684931506849  0.0000000000000000 Si
   0.1506849315068504  0.3013698630136986  0.0000000000000000 Si
   0.6438356164383574  0.2876712328767123  0.0000000000000000 Si
   0.1369863013698627  0.2739726027397260  0.0000000000000000 Si
   0.6301369863013697  0.2602739726027397  0.0000000000000000 Si
   0.7397260273972606  0.4794520547945205  0.0000000000000000 Si
   0.4931506849315070  0.9863013698630136  0.0000000000000000 Si
